atoms H Cl
masses 1.00782503223 34.968852682
states X
print_pecs_and_couplings_to_file
assign_V_by_count
jrot 0 - 41
symmetry Cs(M)
grid
 npoints 501
 range 0.7 5
 type 0
end
diagonalizer
 SYEV
end
contraction
 vib
 vmax 80
end
poten X
name "X1Sigma+"
lambda 0
symmetry +
mult 1
type MLJ
values
TE       0.00000000000000E+00
RE       1.27454659625716E+00 fit
AE       3.72318959403739E+04 fit
R12      2.50000000000000E+00
DELTA    2.00000000000000E+00
PHIINF   5.20023776409657E-01
N        6.00000000000000E+00
PHI0     -3.97559312978256E+00 fit
PHI1     4.13255650679077E-01 fit
PHI2     -6.68451435928115E-01 fit
PHI3     -9.04739294933489E-01 fit
PHI4     -1.29478262676300E+00 fit
PHI5     2.98871716268579E+00 fit
PHI6     -1.19832624010942E-01 fit
PHI7     -1.95673843459258E+01 fit
PHI8     9.95045245005434E+00 fit
PHI9     1.76092973463981E+01 fit
PHI10    -1.01890184621942E+01 fit
end
bob-rot X
name "<X|BR|X>"
lambda 0
spin 0
type polynom_decay_24
values
RE       1.27454659625716E+00
BETA     8.00000000000000E-01
GAMMA    2.00000000000000E-02
P        6.00000000000000E+00
B0       0.00000000000000E+00 fit
B1       0.00000000000000E+00 fit
B2       0.00000000000000E+00 fit
B3       0.00000000000000E+00 fit
BINF     0.00000000000000E+00
end
abinitio poten X
name "X1Sigma+"
lambda 0
symmetry +
mult 1
type grid
units cm-1
fit_factor 1e-07
weighting PS1997 1e-5 80000.0
values
0.7 158961.76903361
0.8 83351.77111263
0.9 40715.729741327
1 17471.297615535
1.1 5734.6007112189
1.2 844.14630457585
1.25 42.089220474676
1.3 0
1.35 534.00864839927
1.4 1499.832906471
1.45 2783.8818867325
1.5 4296.4637723248
1.55 5966.603620877
1.6 7738.0599115705
1.65 9566.2362602985
1.68 10675.432778915
1.69 11045.699364322
1.7 11415.8839426
1.71 11785.783753847
1.72 12155.205223209
1.73 12523.96378811
1.74 12891.883277795
1.75 13258.795755537
1.76 13624.541075965
1.78 14351.714902113
1.8 15072.66795512
2 21744.21850963
2.5 32328.648138205
3 35095.722732288
3.5 34435.261643035
end
fitting
JLIST 0 - 41
itmax 0
fit_factor 1000000
fit_type DGELSS
fit_scale 0.1
output fit
lock -8000
robust 0
energies
    0 e     1 0.000000000000 X    0 0 0 0 100
    0 e     2 2885.976400000000 X    1 0 0 0 70.7106781187
    0 e     3 5667.982976000000 X    2 0 0 0 57.735026919
    0 e     4 8346.776900000001 X    3 0 0 0 50
    0 e     5 10922.826746000001 X    4 0 0 0 44.72135955
    0 e     6 13396.271161999999 X    5 0 0 0 40.8248290464
    0 e     7 15766.859800000000 X    6 0 0 0 37.7964473009
    0 e     8 18033.849752999999 X    7 0 0 0 35.3553390593
    0 e     9 20196.056400000001 X    8 0 0 0 33.3333333333
    0 e    10 22251.584800000001 X    9 0 0 0 31.6227766017
    0 e    11 24197.664164999998 X   10 0 0 0 30.1511344578
    0 e    12 26030.665799999999 X   11 0 0 0 28.8675134595
    0 e    13 27745.703191000001 X   12 0 0 0 27.7350098113
    0 e    14 29336.343594000002 X   13 0 0 0 26.7261241912
    0 e    15 30794.211698999999 X   14 0 0 0 25.8198889747
    0 e    16 32108.282393000001 X   15 0 0 0 25
    0 e    17 33263.949399999998 X   16 0 0 0 24.2535625036
    0 e    18 34241.068800000001 X   17 0 0 0 23.5702260396
    1 e     1 20.878300000000 X    0 0 0 0 70.7106781187
    1 e     2 2906.246681000000 X    1 0 0 0 50
    1 e     3 5687.650087000000 X    2 0 0 0 40.8248290464
    1 e     4 8365.844431000000 X    3 0 0 0 35.3553390593
    1 e     5 10941.296730000000 X    4 0 0 0 31.6227766017
    1 e     6 13414.143813000001 X    5 0 0 0 28.8675134595
    1 e     7 15784.133072000001 X    6 0 0 0 26.7261241912
    1 e     8 18050.518955000000 X    7 0 0 0 25
    1 e     9 20212.114057999999 X    8 0 0 0 23.5702260396
    1 e    10 22267.018555999999 X    9 0 0 0 22.360679775
    1 e    11 24212.456850999999 X   10 0 0 0 21.3200716356
    1 e    12 26044.793945000001 X   11 0 0 0 20.4124145232
    1 e    13 27759.134451999998 X   12 0 0 0 19.6116135138
    1 e    14 29349.034426999999 X   13 0 0 0 18.8982236505
    1 e    15 30806.102741999999 X   14 0 0 0 18.2574185835
    1 e    16 32119.291750000000 X   15 0 0 0 17.6776695297
    1 e    17 33273.960633000002 X   16 0 0 0 17.1498585143
    1 e    18 34249.904827999999 X   17 0 0 0 16.6666666667
    2 e     1 62.622200000000 X    0 0 0 0 57.735026919
    2 e     2 2946.774715000000 X    1 0 0 0 40.8248290464
    2 e     3 5726.971966000000 X    2 0 0 0 33.3333333333
    2 e     4 8403.967261000000 X    3 0 0 0 28.8675134595
    2 e     5 10978.224580000000 X    4 0 0 0 25.8198889747
    2 e     6 13449.877122000000 X    5 0 0 0 23.5702260396
    2 e     7 15818.667686000001 X    6 0 0 0 21.8217890236
    2 e     8 18083.845520999999 X    7 0 0 0 20.4124145232
    2 e     9 20244.217261999998 X    8 0 0 0 19.245008973
    2 e    10 22297.873847999999 X    9 0 0 0 18.2574185835
    2 e    11 24242.029800000000 X   10 0 0 0 17.4077655956
    2 e    12 26073.037491999999 X   11 0 0 0 16.6666666667
    2 e    13 27785.983700000001 X   12 0 0 0 16.0128153805
    2 e    14 29374.402042999998 X   13 0 0 0 15.4303349962
    2 e    15 30829.869637000000 X   14 0 0 0 14.90711985
    2 e    16 32141.293570999998 X   15 0 0 0 14.4337567297
    2 e    17 33293.963450000003 X   16 0 0 0 14.0028008403
    2 e    18 34267.552666000003 X   17 0 0 0 13.6082763488
    3 e     1 125.206300000000 X    0 0 0 0 50
    3 e     2 3007.535600000000 X    1 0 0 0 35.3553390593
    3 e     3 5785.923935000000 X    2 0 0 0 28.8675134595
    3 e     4 8461.120965000000 X    3 0 0 0 25
    3 e     5 11033.586042000001 X    4 0 0 0 22.360679775
    3 e     6 13503.446935000000 X    5 0 0 0 20.4124145232
    3 e     7 15870.439542000000 X    6 0 0 0 18.8982236505
    3 e     8 18133.805291000001 X    7 0 0 0 17.6776695297
    3 e     9 20292.341827000000 X    8 0 0 0 16.6666666667
    3 e    10 22344.126142000001 X    9 0 0 0 15.8113883008
    3 e    11 24286.358033000000 X   10 0 0 0 15.0755672289
    3 e    12 26115.370697999999 X   11 0 0 0 14.4337567297
    3 e    13 27826.224149999998 X   12 0 0 0 13.8675049056
    3 e    14 29412.418092000000 X   13 0 0 0 13.3630620956
    3 e    15 30865.481733000001 X   14 0 0 0 12.9099444874
    3 e    16 32174.253766999998 X   15 0 0 0 12.5
    3 e    17 33323.918379000002 X   16 0 0 0 12.1267812518
    3 e    18 34293.963431999997 X   17 0 0 0 11.7851130198
    4 e     1 208.592900000000 X    0 0 0 0 44.72135955
    4 e     2 3088.491613000000 X    1 0 0 0 31.6227766017
    4 e     3 5864.468824000000 X    2 0 0 0 25.8198889747
    4 e     4 8537.268744000001 X    3 0 0 0 22.360679775
    4 e     5 11107.344682000001 X    4 0 0 0 20
    4 e     6 13574.817043999999 X    5 0 0 0 18.2574185835
    4 e     7 15939.412533999999 X    6 0 0 0 16.9030850946
    4 e     8 18200.362137000000 X    7 0 0 0 15.8113883008
    4 e     9 20356.451431000001 X    8 0 0 0 14.90711985
    4 e    10 22405.738754999998 X    9 0 0 0 14.1421356237
    4 e    11 24345.404138999998 X   10 0 0 0 13.4839972493
    4 e    12 26171.755091999999 X   11 0 0 0 12.9099444874
    4 e    13 27879.815674000001 X   12 0 0 0 12.4034734589
    4 e    14 29463.040085000001 X   13 0 0 0 11.9522860933
    4 e    15 30912.893060999999 X   14 0 0 0 11.5470053838
    4 e    16 32218.121157000001 X   15 0 0 0 11.1803398875
    4 e    17 33363.765996000002 X   16 0 0 0 10.8465228909
    4 e    18 34329.063365000002 X   17 0 0 0 10.5409255339
    5 e     1 312.731100000000 X    0 0 0 0 40.8248290464
    5 e     2 3189.593067000000 X    1 0 0 0 28.8675134595
    5 e     3 5962.557379000000 X    2 0 0 0 23.5702260396
    5 e     4 8632.361833000001 X    3 0 0 0 20.4124145232
    5 e     5 11199.452058999999 X    4 0 0 0 18.2574185835
    5 e     6 13663.939283000000 X    5 0 0 0 16.6666666667
    5 e     7 16025.538624000001 X    6 0 0 0 15.4303349962
    5 e     8 18283.467983999999 X    7 0 0 0 14.4337567297
    5 e     9 20436.497727999998 X    8 0 0 0 13.6082763488
    5 e    10 22482.662729000000 X    9 0 0 0 12.9099444874
    5 e    11 24419.118229000000 X   10 0 0 0 12.3091490979
    5 e    12 26242.139299999999 X   11 0 0 0 11.7851130198
    5 e    13 27946.704723999999 X   12 0 0 0 11.3227703414
    5 e    14 29526.211280000000 X   13 0 0 0 10.9108945118
    5 e    15 30972.042161000001 X   14 0 0 0 10.5409255339
    5 e    16 32272.827200000000 X   15 0 0 0 10.2062072616
    5 e    17 33413.426589000002 X   16 0 0 0 9.90147542977
    5 e    18 34372.753088999998 X   17 0 0 0 9.62250448649
    6 e     1 437.558000000000 X    0 0 0 0 37.7964473009
    6 e     2 3310.777500000000 X    1 0 0 0 26.7261241912
    6 e     3 6080.127923000000 X    2 0 0 0 21.8217890236
    6 e     4 8746.339164000001 X    3 0 0 0 18.8982236505
    6 e     5 11309.847630000000 X    4 0 0 0 16.9030850946
    6 e     6 13770.753452000001 X    5 0 0 0 15.4303349962
    6 e     7 16128.757765000000 X    6 0 0 0 14.2857142857
    6 e     8 18383.062754999999 X    7 0 0 0 13.3630620956
    6 e     9 20532.420290999999 X    8 0 0 0 12.598815767
    6 e    10 22574.836899999998 X    9 0 0 0 11.9522860933
    6 e    11 24507.437948999999 X   10 0 0 0 11.396057646
    6 e    12 26326.459099000000 X   11 0 0 0 10.9108945118
    6 e    13 28026.824293000001 X   12 0 0 0 10.4828483672
    6 e    14 29601.860600000000 X   13 0 0 0 10.1015254455
    6 e    15 31042.851974000001 X   14 0 0 0 9.75900072949
    6 e    16 32338.285857999999 X   15 0 0 0 9.44911182523
    6 e    17 33472.799652000002 X   16 0 0 0 9.16698497028
    6 e    18 34424.906600000002 X   17 0 0 0 8.90870806375
    7 e     1 582.998000000000 X    0 0 0 0 35.3553390593
    7 e     2 3451.970300000000 X    1 0 0 0 25
    7 e     3 6217.106668000000 X    2 0 0 0 20.4124145232
    7 e     4 8879.127672000001 X    3 0 0 0 17.6776695297
    7 e     5 11438.458890000000 X    4 0 0 0 15.8113883008
    7 e     6 13895.187458000000 X    5 0 0 0 14.4337567297
    7 e     7 16248.998030999999 X    6 0 0 0 13.3630620956
    7 e     8 18499.074428000000 X    7 0 0 0 12.5
    7 e     9 20644.146657000001 X    8 0 0 0 11.7851130198
    7 e    10 22682.187900000001 X    9 0 0 0 11.1803398875
    7 e    11 24610.288451000000 X   10 0 0 0 10.6600358178
    7 e    12 26424.637342000002 X   11 0 0 0 10.2062072616
    7 e    13 28120.093835000000 X   12 0 0 0 9.80580675691
    7 e    14 29689.902547000002 X   13 0 0 0 9.44911182523
    7 e    15 31125.229599999999 X   14 0 0 0 9.12870929175
    7 e    16 32414.393100000001 X   15 0 0 0 8.83883476483
    7 e    17 33541.763300999999 X   16 0 0 0 8.57492925713
    7 e    18 34485.370027999998 X   17 0 0 0 8.33333333333
    8 e     1 748.962900000000 X    0 0 0 0 33.3333333333
    8 e     2 3613.084553000000 X    1 0 0 0 23.5702260396
    8 e     3 6373.407635000000 X    2 0 0 0 19.245008973
    8 e     4 9030.642200000000 X    3 0 0 0 16.6666666667
    8 e     5 11585.201380000000 X    4 0 0 0 14.90711985
    8 e     6 14037.157288000000 X    5 0 0 0 13.6082763488
    8 e     7 16386.175620999999 X    6 0 0 0 12.598815767
    8 e     8 18631.419099999999 X    7 0 0 0 11.7851130198
    8 e     9 20771.592381999999 X    8 0 0 0 11.1111111111
    8 e    10 22804.630200000000 X    9 0 0 0 10.5409255339
    8 e    11 24727.582399999999 X   10 0 0 0 10.0503781526
    8 e    12 26536.583981000000 X   11 0 0 0 9.62250448649
    8 e    13 28226.419200000000 X   12 0 0 0 9.24500327042
    8 e    14 29790.237000000001 X   13 0 0 0 8.90870806375
    8 e    15 31219.066191000002 X   14 0 0 0 8.60662965824
    8 e    16 32501.026593999999 X   15 0 0 0 8.33333333333
    8 e    17 33620.173767000000 X   16 0 0 0 8.08452083454
    8 e    18 34553.960266000002 X   17 0 0 0 7.85674201318
    9 e     1 935.352500000000 X    0 0 0 0 31.6227766017
    9 e     2 3794.021100000000 X    1 0 0 0 22.360679775
    9 e     3 6548.932800000000 X    2 0 0 0 18.2574185835
    9 e     4 9200.785741000000 X    3 0 0 0 15.8113883008
    9 e     5 11749.978783000000 X    4 0 0 0 14.1421356237
    9 e     6 14196.567134999999 X    5 0 0 0 12.9099444874
    9 e     7 16540.194897000001 X    6 0 0 0 11.9522860933
    9 e     8 18780.001000000000 X    7 0 0 0 11.1803398875
    9 e     9 20914.661000000000 X    8 0 0 0 10.5409255339
    9 e    10 22942.065999999999 X    9 0 0 0 10
    9 e    11 24859.220095000001 X   10 0 0 0 9.53462589246
    9 e    12 26662.195999000000 X   11 0 0 0 9.12870929175
    9 e    13 28345.692700000000 X   12 0 0 0 8.77058019307
    9 e    14 29902.749197000001 X   13 0 0 0 8.45154254729
    9 e    15 31324.236413999999 X   14 0 0 0 8.16496580928
    9 e    16 32598.045466000000 X   15 0 0 0 7.90569415042
    9 e    17 33707.864134000003 X   16 0 0 0 7.66964988847
    9 e    18 34630.462410000000 X   17 0 0 0 7.453559925
   10 e     1 1142.054200000000 X    0 0 0 0 30.1511344578
   10 e     2 3994.668700000000 X    1 0 0 0 21.3200716356
   10 e     3 6743.572200000000 X    2 0 0 0 17.4077655956
   10 e     4 9389.449300000000 X    3 0 0 0 15.0755672289
   10 e     5 11932.682994999999 X    4 0 0 0 13.4839972493
   10 e     6 14373.309400000000 X    5 0 0 0 12.3091490979
   10 e     7 16710.948495000001 X    6 0 0 0 11.396057646
   10 e     8 18944.712500000001 X    7 0 0 0 10.6600358178
   10 e     9 21073.244200000001 X    8 0 0 0 10.0503781526
   10 e    10 23094.385598000001 X    9 0 0 0 9.53462589246
   10 e    11 25005.089100000001 X   10 0 0 0 9.09090909091
   10 e    12 26801.357243999999 X   11 0 0 0 8.70388279778
   10 e    13 28477.792586000000 X   12 0 0 0 8.36242010007
   10 e    14 30027.309474000002 X   13 0 0 0 8.05822964025
   10 e    15 31440.598662000000 X   14 0 0 0 7.78498944162
   10 e    16 32705.289293999998 X   15 0 0 0 7.53778361444
   10 e    17 33804.643385000003 X   16 0 0 0 7.31272424127
   10 e    18 34714.627293999998 X   17 0 0 0 7.10669054519
   11 e     1 1368.943100000000 X    0 0 0 0 28.8675134595
   11 e     2 4214.904200000000 X    1 0 0 0 20.4124145232
   11 e     3 6957.204000000000 X    2 0 0 0 16.6666666667
   11 e     4 9596.512199999999 X    3 0 0 0 14.4337567297
   11 e     5 12133.194100000001 X    4 0 0 0 12.9099444874
   11 e     6 14567.264841000000 X    5 0 0 0 11.7851130198
   11 e     7 16898.317240000000 X    6 0 0 0 10.9108945118
   11 e     8 19125.434355000001 X    7 0 0 0 10.2062072616
   11 e     9 21247.221716000000 X    8 0 0 0 9.62250448649
   11 e    10 23261.466687000000 X    9 0 0 0 9.12870929175
   11 e    11 25165.064664000001 X   10 0 0 0 8.70388279778
   11 e    12 26953.938785999999 X   11 0 0 0 8.33333333333
   11 e    13 28622.583570999999 X   12 0 0 0 8.00640769025
   11 e    14 30163.772985000000 X   13 0 0 0 7.7151674981
   11 e    15 31567.994039000001 X   14 0 0 0 7.453559925
   11 e    16 32822.577649999999 X   15 0 0 0 7.21687836487
   11 e    17 33910.294952999997 X   16 0 0 0 7.00140042014
   11 e    18 34806.167974999997 X   17 0 0 0 6.8041381744
   12 e     1 1615.882600000000 X    0 0 0 0 27.7350098113
   12 e     2 4454.592385000000 X    1 0 0 0 19.6116135138
   12 e     3 7189.694481000000 X    2 0 0 0 16.0128153805
   12 e     4 9821.841899999999 X    3 0 0 0 13.8675049056
   12 e     5 12351.380751999999 X    4 0 0 0 12.4034734589
   12 e     6 14778.302683000000 X    5 0 0 0 11.3227703414
   12 e     7 17102.170625999999 X    6 0 0 0 10.4828483672
   12 e     8 19322.035532000002 X    7 0 0 0 9.80580675691
   12 e     9 21436.461429999999 X    8 0 0 0 9.24500327042
   12 e    10 23443.175395999999 X    9 0 0 0 8.77058019307
   12 e    11 25339.009535000001 X   10 0 0 0 8.36242010007
   12 e    12 27119.798299999999 X   11 0 0 0 8.00640769025
   12 e    13 28779.916089999999 X   12 0 0 0 7.69230769231
   12 e    14 30311.979502999999 X   13 0 0 0 7.41249316661
   12 e    15 31706.246225999999 X   14 0 0 0 7.16114874039
   12 e    16 32949.709185000000 X   15 0 0 0 6.93375245282
   12 e    17 34024.574983999999 X   16 0 0 0 6.72672793996
   12 e    18 34904.755138000000 X   17 0 0 0 6.53720450461
   13 e     1 1882.723900000000 X    0 0 0 0 26.7261241912
   13 e     2 4713.586460000000 X    1 0 0 0 18.8982236505
   13 e     3 7440.898389000000 X    2 0 0 0 15.4303349962
   13 e     4 10065.294613000000 X    3 0 0 0 13.3630620956
   13 e     5 12587.099967000000 X    4 0 0 0 11.9522860933
   13 e     6 15006.280514000000 X    5 0 0 0 10.9108945118
   13 e     7 17322.366348000000 X    6 0 0 0 10.1015254455
   13 e     8 19534.373361000002 X    7 0 0 0 9.44911182523
   13 e     9 21640.819384999999 X    8 0 0 0 8.90870806375
   13 e    10 23639.365370000000 X    9 0 0 0 8.45154254729
   13 e    11 25526.773760000000 X   10 0 0 0 8.05822964025
   13 e    12 27298.780288999998 X   11 0 0 0 7.7151674981
   13 e    13 28949.626398000000 X   12 0 0 0 7.41249316661
   13 e    14 30471.753066000001 X   13 0 0 0 7.14285714286
   13 e    15 31855.160857999999 X   14 0 0 0 6.90065559342
   13 e    16 33086.460586000001 X   15 0 0 0 6.68153104781
   13 e    17 34147.210171999999 X   16 0 0 0 6.48203723552
   13 e    18 35010.011115000001 X   17 0 0 0 6.29940788349
   14 e     1 2169.306500000000 X    0 0 0 0 25.8198889747
   14 e     2 4991.727897000000 X    1 0 0 0 18.2574185835
   14 e     3 7710.658900000000 X    2 0 0 0 14.90711985
   14 e     4 10326.714862000001 X    3 0 0 0 12.9099444874
   14 e     5 12840.197394000001 X    4 0 0 0 11.5470053838
   14 e     6 15251.044633000000 X    5 0 0 0 10.5409255339
   14 e     7 17558.750758999999 X    6 0 0 0 9.75900072949
   14 e     8 19762.293651000000 X    7 0 0 0 9.12870929175
   14 e     9 21860.139884000000 X    8 0 0 0 8.60662965824
   14 e    10 23849.878277000000 X    9 0 0 0 8.16496580928
   14 e    11 25728.194874000001 X   10 0 0 0 7.78498944162
   14 e    12 27490.715936000001 X   11 0 0 0 7.453559925
   14 e    13 29131.536343000000 X   12 0 0 0 7.16114874039
   14 e    14 30642.901625999999 X   13 0 0 0 6.90065559342
   14 e    15 32014.524842999999 X   14 0 0 0 6.66666666667
   14 e    16 33232.585322999999 X   15 0 0 0 6.45497224368
   14 e    17 34277.895071999999 X   16 0 0 0 6.26224291085
   14 e    18 35121.501834000002 X   17 0 0 0 6.0858061945
   15 e     1 2475.458500000000 X    0 0 0 0 25
   15 e     2 5288.846637000000 X    1 0 0 0 17.6776695297
   15 e     3 7998.807764000000 X    2 0 0 0 14.4337567297
   15 e     4 10605.935837999999 X    3 0 0 0 12.5
   15 e     5 13110.507313000000 X    4 0 0 0 11.1803398875
   15 e     6 15512.429931000001 X    5 0 0 0 10.2062072616
   15 e     7 17811.158772999999 X    6 0 0 0 9.44911182523
   15 e     8 20005.630643000000 X    7 0 0 0 8.83883476483
   15 e     9 22094.255412999999 X    8 0 0 0 8.33333333333
   15 e    10 24074.543610000001 X    9 0 0 0 7.90569415042
   15 e    11 25943.097684000000 X   10 0 0 0 7.53778361444
   15 e    12 27695.422896000000 X   11 0 0 0 7.21687836487
   15 e    13 29325.453061000000 X   12 0 0 0 6.93375245282
   15 e    14 30825.216591000000 X   13 0 0 0 6.68153104781
   15 e    15 32184.105567999999 X   14 0 0 0 6.45497224368
   15 e    16 33387.812134000000 X   15 0 0 0 6.25
   15 e    17 34416.288723999998 X   16 0 0 0 6.06339062591
   15 e    18 35238.725775999999 X   17 0 0 0 5.89255650989
   16 e     1 2800.996300000000 X    0 0 0 0 24.2535625036
   16 e     2 5604.761333000000 X    1 0 0 0 17.1498585143
   16 e     3 8305.165498000000 X    2 0 0 0 14.0028008403
   16 e     4 10902.779627000000 X    3 0 0 0 12.1267812518
   16 e     5 13397.852926000000 X    4 0 0 0 10.8465228909
   16 e     6 15790.260198000000 X    5 0 0 0 9.90147542977
   16 e     7 18079.414118000001 X    6 0 0 0 9.16698497028
   16 e     8 20264.207227999999 X    7 0 0 0 8.57492925713
   16 e     9 22342.986835000000 X    8 0 0 0 8.08452083454
   16 e    10 24313.178861000000 X    9 0 0 0 7.66964988847
   16 e    11 26171.294365000002 X   10 0 0 0 7.31272424127
   16 e    12 27912.705256000001 X   11 0 0 0 7.00140042014
   16 e    13 29531.168717000000 X   12 0 0 0 6.72672793996
   16 e    14 31018.472199000000 X   13 0 0 0 6.48203723552
   16 e    15 32363.649960999999 X   14 0 0 0 6.26224291085
   16 e    16 33551.843185999998 X   15 0 0 0 6.06339062591
   16 e    17 34562.010364000002 X   16 0 0 0 5.88235294118
   16 e    18 35361.098341999998 X   17 0 0 0 5.71661950475
   17 e     1 3145.725000000000 X    0 0 0 0 23.5702260396
   17 e     2 5939.279400000000 X    1 0 0 0 16.6666666667
   17 e     3 8629.541454000000 X    2 0 0 0 13.6082763488
   17 e     4 11217.057159000000 X    3 0 0 0 11.7851130198
   17 e     5 13702.046286000001 X    4 0 0 0 10.5409255339
   17 e     6 16084.348032000000 X    5 0 0 0 9.62250448649
   17 e     7 18363.329233000000 X    6 0 0 0 8.90870806375
   17 e     8 20537.834827999999 X    7 0 0 0 8.33333333333
   17 e     9 22606.143229000001 X    8 0 0 0 7.85674201318
   17 e    10 24565.589216000000 X    9 0 0 0 7.453559925
   17 e    11 26412.584166000001 X   10 0 0 0 7.10669054519
   17 e    12 28142.353222999998 X   11 0 0 0 6.8041381744
   17 e    13 29748.460126000002 X   12 0 0 0 6.53720450461
   17 e    14 31222.425102000001 X   13 0 0 0 6.29940788349
   17 e    15 32552.883317000000 X   14 0 0 0 6.0858061945
   17 e    16 33724.351773000002 X   15 0 0 0 5.89255650989
   17 e    17 34714.633842000003 X   16 0 0 0 5.71661950475
   17 e    18 35487.928774000000 X   17 0 0 0 5.55555555556
   18 e     1 3509.438645000000 X    0 0 0 0 22.9415733871
   18 e     2 6292.197189000000 X    1 0 0 0 16.2221421131
   18 e     3 8971.734087000001 X    2 0 0 0 13.2453235707
   18 e     4 11548.568499999999 X    3 0 0 0 11.4707866935
   18 e     5 14022.888632000000 X    4 0 0 0 10.2597835209
   18 e     6 16394.495161999999 X    5 0 0 0 9.36585811582
   18 e     7 18662.705572999999 X    6 0 0 0 8.67109969524
   18 e     8 20826.313662000000 X    7 0 0 0 8.11107105654
   18 e     9 22883.522099999998 X    8 0 0 0 7.64719112902
   18 e    10 24831.567899999998 X    9 0 0 0 7.2547625011
   18 e    11 26666.753509999999 X   10 0 0 0 6.91714463866
   18 e    12 28384.142981000001 X   11 0 0 0 6.62266178533
   18 e    13 29977.088350000002 X   12 0 0 0 6.36284762976
   18 e    14 31436.813434000000 X   13 0 0 0 6.13139339485
   18 e    15 32751.508000000002 X   14 0 0 0 5.92348877759
   18 e    16 33904.979595999997 X   15 0 0 0 5.73539334676
   18 e    17 34873.680405999999 X   16 0 0 0 5.56414884075
   18 e    18 35618.384410999999 X   17 0 0 0 5.40738070436
   19 e     1 3891.920300000000 X    0 0 0 0 22.360679775
   19 e     2 6663.300243000000 X    1 0 0 0 15.8113883008
   19 e     3 9331.530972000000 X    2 0 0 0 12.9099444874
   19 e     4 11897.102907000000 X    3 0 0 0 11.1803398875
   19 e     5 14360.170251000000 X    4 0 0 0 10
   19 e     6 16720.492288000001 X    5 0 0 0 9.12870929175
   19 e     7 18977.333427000001 X    6 0 0 0 8.45154254729
   19 e     8 21129.432532999999 X    7 0 0 0 7.90569415042
   19 e     9 23174.909232000002 X    8 0 0 0 7.453559925
   19 e    10 25110.895799999998 X    9 0 0 0 7.07106781187
   19 e    11 26933.575700000001 X   10 0 0 0 6.74199862463
   19 e    12 28637.836374999999 X   11 0 0 0 6.45497224368
   19 e    13 30216.798211000001 X   12 0 0 0 6.20173672946
   19 e    14 31661.355986999999 X   13 0 0 0 5.97614304667
   19 e    15 32959.201736000003 X   14 0 0 0 5.7735026919
   19 e    16 34093.333213999998 X   15 0 0 0 5.59016994375
   19 e    17 35038.608844000002 X   16 0 0 0 5.42326144547
   19 e    18 35751.430464999998 X   17 0 0 0 5.27046276695
   20 e     1 4292.942200000000 X    0 0 0 0 21.8217890236
   20 e     2 7052.363370000000 X    1 0 0 0 15.4303349962
   20 e     3 9708.709100000000 X    2 0 0 0 12.598815767
   20 e     4 12262.439098999999 X    3 0 0 0 10.9108945118
   20 e     5 14713.670994000000 X    4 0 0 0 9.75900072949
   20 e     6 17062.119566000001 X    5 0 0 0 8.90870806375
   20 e     7 19306.992377999999 X    6 0 0 0 8.24786098842
   20 e     8 21446.969248000001 X    7 0 0 0 7.7151674981
   20 e     9 23480.078839000002 X    8 0 0 0 7.27392967453
   20 e    10 25403.341595999998 X    9 0 0 0 6.90065559342
   20 e    11 27212.810815000001 X   10 0 0 0 6.5795169496
   20 e    12 28903.180597999999 X   11 0 0 0 6.29940788349
   20 e    13 30467.317660000001 X   12 0 0 0 6.05227532669
   20 e    14 31895.751160000000 X   13 0 0 0 5.8321184352
   20 e    15 33175.615654000001 X   14 0 0 0 5.63436169819
   20 e    16 34288.979697000002 X   15 0 0 0 5.4554472559
   20 e    17 35208.802012000000 X   16 0 0 0 5.29256124025
   20 e    18 35885.715751999996 X   17 0 0 0 5.14344499874
   21 e     1 4712.266057000000 X    0 0 0 0 21.3200716356
   21 e     2 7459.150858000000 X    1 0 0 0 15.0755672289
   21 e     3 10103.034940000000 X    2 0 0 0 12.3091490979
   21 e     4 12644.345130000000 X    3 0 0 0 10.6600358178
   21 e     5 15083.159974000000 X    4 0 0 0 9.53462589246
   21 e     6 17419.146320000000 X    5 0 0 0 8.70388279778
   21 e     7 19651.450989000001 X    6 0 0 0 8.05822964025
   21 e     8 21778.690257999999 X    7 0 0 0 7.53778361444
   21 e     9 23798.793377000002 X    8 0 0 0 7.10669054519
   21 e    10 25708.661584000001 X    9 0 0 0 6.74199862463
   21 e    11 27504.205497999999 X   10 0 0 0 6.42824346533
   21 e    12 29179.907814999999 X   11 0 0 0 6.15457454897
   21 e    13 30728.357142000001 X   12 0 0 0 5.91312395989
   21 e    14 32139.675736000001 X   13 0 0 0 5.69802882298
   21 e    15 33400.371831999997 X   14 0 0 0 5.50481882563
   21 e    16 34491.441004000000 X   15 0 0 0 5.33001790889
   21 e    17 35383.547510999997 X   16 0 0 0 5.17087689995
   21 e    18 36019.290600000000 X   17 0 0 0 5.0251890763
   22 e     1 5149.643200000000 X    0 0 0 0 20.8514414057
   22 e     2 7883.416689000000 X    1 0 0 0 14.7441956155
   22 e     3 10514.264728000000 X    2 0 0 0 12.0385853086
   22 e     4 13042.578942000000 X    3 0 0 0 10.4257207029
   22 e     5 15468.396095000000 X    4 0 0 0 9.3250480824
   22 e     6 17791.331507999999 X    5 0 0 0 8.51256530759
   22 e     7 20010.467235000000 X    6 0 0 0 7.88110406239
   22 e     8 22124.351044999999 X    7 0 0 0 7.37209780774
   22 e     9 24130.803746000001 X    8 0 0 0 6.95048046857
   22 e    10 26026.599596000000 X    9 0 0 0 6.59380473396
   22 e    11 27807.492684000001 X   10 0 0 0 6.28694613462
   22 e    12 29467.734675000000 X   11 0 0 0 6.01929265429
   22 e    13 30999.608698000000 X   12 0 0 0 5.78314931966
   22 e    14 32392.783299999999 X   13 0 0 0 5.57278212575
   22 e    15 33633.060298999997 X   14 0 0 0 5.38381902058
   22 e    16 34700.186694999997 X   15 0 0 0 5.21286035143
   22 e    17 35562.008854000000 X   16 0 0 0 5.05721737424
   22 e    18 36148.659391000001 X   17 0 0 0 4.91473187183
   23 e     1 5604.814600000000 X    0 0 0 0 20.4124145232
   23 e     2 8324.904755000000 X    1 0 0 0 14.4337567297
   23 e     3 10942.144552000000 X    2 0 0 0 11.7851130198
   23 e     4 13456.888258000001 X    3 0 0 0 10.2062072616
   23 e     5 15869.127922000000 X    4 0 0 0 9.12870929175
   23 e     6 18178.423551000000 X    5 0 0 0 8.33333333333
   23 e     7 20383.788304999998 X    6 0 0 0 7.7151674981
   23 e     8 22483.695863000001 X    7 0 0 0 7.21687836487
   23 e     9 24475.849061000001 X    8 0 0 0 6.8041381744
   23 e    10 26356.886800000000 X    9 0 0 0 6.45497224368
   23 e    11 28122.391324000000 X   10 0 0 0 6.15457454897
   23 e    12 29766.361787999998 X   11 0 0 0 5.89255650989
   23 e    13 31280.745020999999 X   12 0 0 0 5.66138517072
   23 e    14 32654.702506000001 X   13 0 0 0 5.4554472559
   23 e    15 33873.235239000001 X   14 0 0 0 5.27046276695
   23 e    16 34914.624180999999 X   15 0 0 0 5.1031036308
   23 e    17 35743.179753999997 X   16 0 0 0 4.95073771488
   23 e    18 36269.959867999998 X   17 0 0 0 4.81125224325
   24 e     1 6077.511540000000 X    0 0 0 0 20
   24 e     2 8783.348891000000 X    1 0 0 0 14.1421356237
   24 e     3 11386.410565000000 X    2 0 0 0 11.5470053838
   24 e     4 13887.010821000000 X    3 0 0 0 10
   24 e     5 16285.093998000000 X    4 0 0 0 8.94427191
   24 e     6 18580.160679000001 X    5 0 0 0 8.16496580928
   24 e     7 20771.150903000002 X    6 0 0 0 7.55928946018
   24 e     8 22856.457981000000 X    7 0 0 0 7.07106781187
   24 e     9 24833.656677999999 X    8 0 0 0 6.66666666667
   24 e    10 26699.241806000002 X    9 0 0 0 6.32455532034
   24 e    11 28448.606004000001 X   10 0 0 0 6.03022689156
   24 e    12 30075.473061000001 X   11 0 0 0 5.7735026919
   24 e    13 31571.418254000000 X   12 0 0 0 5.54700196225
   24 e    14 32925.034788999998 X   13 0 0 0 5.34522483825
   24 e    15 34120.410339000002 X   14 0 0 0 5.16397779494
   24 e    16 35134.085591000003 X   15 0 0 0 5
   24 e    17 35925.805525000003 X   16 0 0 0 4.85071250073
   25 e     1 6567.455300000000 X    0 0 0 0 19.6116135138
   25 e     2 9258.473341999999 X    1 0 0 0 13.8675049056
   25 e     3 11846.789178999999 X    2 0 0 0 11.3227703414
   25 e     4 14332.674564000001 X    3 0 0 0 9.80580675691
   25 e     5 16716.022860000001 X    4 0 0 0 8.77058019307
   25 e     6 18996.270865999999 X    5 0 0 0 8.00640769025
   25 e     7 21172.281129999999 X    6 0 0 0 7.41249316661
   25 e     8 23242.359498000002 X    7 0 0 0 6.93375245282
   25 e     9 25203.942100000000 X    8 0 0 0 6.53720450461
   25 e    10 27053.369857000002 X    9 0 0 0 6.20173672946
   25 e    11 28785.826536000000 X   10 0 0 0 5.91312395989
   25 e    12 30394.734935000000 X   11 0 0 0 5.66138517072
   25 e    13 31871.258591000002 X   12 0 0 0 5.4392829322
   25 e    14 33203.351701000000 X   13 0 0 0 5.24142418361
   25 e    15 34374.052672999998 X   14 0 0 0 5.06369683542
   25 e    16 35357.809085000001 X   15 0 0 0 4.90290337845
   25 e    17 36108.227555999998 X   16 0 0 0 4.75651494154
   26 e     1 7074.357717000000 X    0 0 0 0 19.245008973
   26 e     2 9749.992676000000 X    1 0 0 0 13.6082763488
   26 e     3 12322.997178000000 X    2 0 0 0 11.1111111111
   26 e     4 14793.597712000001 X    3 0 0 0 9.62250448649
   26 e     5 17161.633200000000 X    4 0 0 0 8.60662965824
   26 e     6 19426.472000000002 X    5 0 0 0 7.85674201318
   26 e     7 21586.894652999999 X    6 0 0 0 7.27392967453
   26 e     8 23641.111433999999 X    7 0 0 0 6.8041381744
   26 e     9 25586.408840000000 X    8 0 0 0 6.415002991
   26 e    10 27418.963107000000 X    9 0 0 0 6.0858061945
   26 e    11 29133.727392000001 X   10 0 0 0 5.80258853186
   26 e    12 30723.795403000000 X   11 0 0 0 5.55555555556
   26 e    13 32179.872520000001 X   12 0 0 0 5.33760512684
   26 e    14 33489.191528000003 X   13 0 0 0 5.14344499874
   26 e    15 34633.574816000000 X   14 0 0 0 4.96903995
   26 e    16 35584.911562000001 X   15 0 0 0 4.81125224325
   26 e    17 36287.969976000000 X   16 0 0 0 4.66760028009
   27 e     1 7597.921300000000 X    0 0 0 0 18.8982236505
   27 e     2 10257.612197000000 X    1 0 0 0 13.3630620956
   27 e     3 12814.742043000000 X    2 0 0 0 10.9108945118
   27 e     4 15269.489062000001 X    3 0 0 0 9.44911182523
   27 e     5 17621.634086999999 X    4 0 0 0 8.45154254729
   27 e     6 19870.471992999999 X    5 0 0 0 7.7151674981
   27 e     7 22014.696657000000 X    6 0 0 0 7.14285714286
   27 e     8 24052.413604000001 X    7 0 0 0 6.68153104781
   27 e     9 25980.748271000000 X    8 0 0 0 6.29940788349
   27 e    10 27795.700013999998 X    9 0 0 0 5.97614304667
   27 e    11 29491.967117000000 X   10 0 0 0 5.69802882298
   27 e    12 31062.282932999999 X   11 0 0 0 5.4554472559
   27 e    13 32496.840786000001 X   12 0 0 0 5.24142418361
   27 e    14 33782.055117999997 X   13 0 0 0 5.05076272276
   27 e    15 34898.324479000003 X   14 0 0 0 4.87950036474
   27 e    16 35814.346561999999 X   15 0 0 0 4.72455591262
   27 e    17 36460.505115000000 X   16 0 0 0 4.58349248514
   28 e     1 8137.839200000000 X    0 0 0 0 18.5695338177
   28 e     2 10781.028071000001 X    1 0 0 0 13.130643286
   28 e     3 13321.721998999999 X    2 0 0 0 10.7211253484
   28 e     4 15760.048025000000 X    3 0 0 0 9.28476690885
   28 e     5 18095.724900000001 X    4 0 0 0 8.30454798537
   28 e     6 20327.968811999999 X    5 0 0 0 7.58098043579
   28 e     7 22455.381910000000 X    6 0 0 0 7.01862406344
   28 e     8 24475.954583999999 X    7 0 0 0 6.56532164299
   28 e     9 26386.639437999998 X    8 0 0 0 6.1898446059
   28 e    10 28183.244964000001 X    9 0 0 0 5.87220219515
   28 e    11 29860.187576000000 X   10 0 0 0 5.59892510956
   28 e    12 31409.805097000000 X   11 0 0 0 5.36056267419
   28 e    13 32821.715848000000 X   12 0 0 0 5.15026202625
   28 e    14 34081.400564000003 X   13 0 0 0 4.96291666985
   28 e    15 35167.570181000003 X   14 0 0 0 4.79463301485
   28 e    16 36044.833991000000 X   15 0 0 0 4.64238345443
   28 e    17 36621.627415000003 X   16 0 0 0 4.50377349111
   29 e     1 8693.796060999999 X    0 0 0 0 18.2574185835
   29 e     2 11319.927506000000 X    1 0 0 0 12.9099444874
   29 e     3 13843.626254999999 X    2 0 0 0 10.5409255339
   29 e     4 16264.964830000001 X    3 0 0 0 9.12870929175
   29 e     5 18583.595774000001 X    4 0 0 0 8.16496580928
   29 e     6 20798.650576000000 X    5 0 0 0 7.453559925
   29 e     7 22908.634725000000 X    6 0 0 0 6.90065559342
   29 e     8 24911.411585000002 X    7 0 0 0 6.45497224368
   29 e     9 26803.748788000001 X    8 0 0 0 6.0858061945
   29 e    10 28581.247789000001 X    9 0 0 0 5.7735026919
   29 e    11 30238.013061000001 X   10 0 0 0 5.50481882563
   29 e    12 31765.946936000000 X   11 0 0 0 5.27046276695
   29 e    13 33154.018749000003 X   12 0 0 0 5.06369683542
   29 e    14 34386.636361999997 X   13 0 0 0 4.87950036474
   29 e    15 35440.481397000003 X   14 0 0 0 4.71404520791
   29 e    16 36274.729800000001 X   15 0 0 0 4.56435464588
   30 e     1 9265.467628000000 X    0 0 0 0 17.9605302027
   30 e     2 11873.989034000000 X    1 0 0 0 12.7000127
   30 e     3 14380.135219000000 X    2 0 0 0 10.3695169473
   30 e     4 16783.920699999999 X    3 0 0 0 8.98026510134
   30 e     5 19084.927228000000 X    4 0 0 0 8.03219328902
   30 e     6 21282.195640000002 X    5 0 0 0 7.33235575107
   30 e     7 23374.128973999999 X    6 0 0 0 6.78844233302
   30 e     8 25358.450337999999 X    7 0 0 0 6.35000635001
   30 e     9 27231.729890999999 X    8 0 0 0 5.98684340089
   30 e    10 28989.343085000000 X    9 0 0 0 5.67961834247
   30 e    11 30625.049189000001 X   10 0 0 0 5.41530361074
   30 e    12 32130.268984999999 X   11 0 0 0 5.18475847365
   30 e    13 33493.235270999998 X   12 0 0 0 4.98135481387
   30 e    14 34697.112510999999 X   13 0 0 0 4.80015360737
   30 e    15 35716.099356999999 X   14 0 0 0 4.6373889576
   30 e    16 36501.726169000001 X   15 0 0 0 4.49013255067
   31 e     1 9852.521199999999 X    0 0 0 0 17.6776695297
   31 e     2 12442.882588000000 X    1 0 0 0 12.5
   31 e     3 14930.920554000000 X    2 0 0 0 10.2062072616
   31 e     4 17316.587880999999 X    3 0 0 0 8.83883476483
   31 e     5 19599.390632999999 X    4 0 0 0 7.90569415042
   31 e     6 21778.272518000002 X    5 0 0 0 7.21687836487
   31 e     7 23851.527892999999 X    6 0 0 0 6.68153104781
   31 e     8 25816.724837999998 X    7 0 0 0 6.25
   31 e     9 27670.222983000000 X    8 0 0 0 5.89255650989
   31 e    10 29407.149600000001 X    9 0 0 0 5.59016994375
   31 e    11 31020.881700000002 X   10 0 0 0 5.33001790889
   31 e    12 32502.304866999999 X   11 0 0 0 5.1031036308
   31 e    13 33838.811081000000 X   12 0 0 0 4.90290337845
   31 e    14 35012.108590999997 X   13 0 0 0 4.72455591262
   31 e    15 35993.292350999996 X   14 0 0 0 4.56435464588
   31 e    16 36721.899558999998 X   15 0 0 0 4.41941738242
   32 e     1 10454.615776000001 X    0 0 0 0 17.4077655956
   32 e     2 13026.269726000000 X    1 0 0 0 12.3091490979
   32 e     3 15495.645418000000 X    2 0 0 0 10.0503781526
   32 e     4 17862.629910000000 X    3 0 0 0 8.70388279778
   32 e     5 20126.648193000001 X    4 0 0 0 7.78498944162
   32 e     6 22286.540083000000 X    5 0 0 0 7.10669054519
   32 e     7 24340.484177999999 X    6 0 0 0 6.5795169496
   32 e     8 26285.877195000001 X    7 0 0 0 6.15457454897
   32 e     9 28118.854566999998 X    8 0 0 0 5.80258853186
   32 e    10 29834.269262000002 X    9 0 0 0 5.50481882563
   32 e    11 31425.074809000002 X   10 0 0 0 5.24863881081
   32 e    12 32881.558278999997 X   11 0 0 0 5.0251890763
   32 e    13 34190.145507000001 X   12 0 0 0 4.82804549585
   32 e    14 35330.817372999998 X   13 0 0 0 4.65242105199
   32 e    15 36270.681700000001 X   14 0 0 0 4.49466574975
   32 e    16 36928.858974000002 X   15 0 0 0 4.35194139889
   33 e     1 11071.402500000000 X    0 0 0 0 17.1498585143
   33 e     2 13623.804113000000 X    1 0 0 0 12.1267812518
   33 e     3 16073.964807000000 X    2 0 0 0 9.90147542977
   33 e     4 18421.701728000000 X    3 0 0 0 8.57492925713
   33 e     5 20666.353034000000 X    4 0 0 0 7.66964988847
   33 e     6 22806.647437000000 X    5 0 0 0 7.00140042014
   33 e     7 24840.639700000000 X    6 0 0 0 6.48203723552
   33 e     8 26765.537324000001 X    7 0 0 0 6.06339062591
   33 e     9 28577.236797000001 X    8 0 0 0 5.71661950475
   33 e    10 30270.286177000002 X    9 0 0 0 5.42326144547
   33 e    11 31837.169355000002 X   10 0 0 0 5.17087689995
   33 e    12 33267.499365999996 X   11 0 0 0 4.95073771488
   33 e    13 34546.583589000002 X   12 0 0 0 4.75651494154
   33 e    14 35652.321773999996 X   13 0 0 0 4.58349248514
   33 e    15 36546.506146000000 X   14 0 0 0 4.4280744277
   34 e     1 11702.524606999999 X    0 0 0 0 16.9030850946
   34 e     2 14235.131205000000 X    1 0 0 0 11.9522860933
   34 e     3 16665.525339000000 X    2 0 0 0 9.75900072949
   34 e     4 18993.449629999999 X    3 0 0 0 8.45154254729
   34 e     5 21218.149130000002 X    4 0 0 0 7.55928946018
   34 e     6 23338.233864999998 X    5 0 0 0 6.90065559342
   34 e     7 25351.625356000000 X    6 0 0 0 6.38876565
   34 e     8 27255.322517000001 X    7 0 0 0 5.97614304667
   34 e     9 29044.966729000000 X    8 0 0 0 5.63436169819
   34 e    10 30714.765315000001 X    9 0 0 0 5.34522483825
   34 e    11 32256.680445000002 X   10 0 0 0 5.09647191438
   34 e    12 33659.560039999997 X   11 0 0 0 4.87950036474
   34 e    13 34907.405444000004 X   12 0 0 0 4.68807230938
   34 e    14 35975.560750999997 X   13 0 0 0 4.51753951453
   34 e    15 36818.316443999996 X   14 0 0 0 4.36435780472
   35 e     1 12347.617883000001 X    0 0 0 0 16.6666666667
   35 e     2 14859.888876999999 X    1 0 0 0 11.7851130198
   35 e     3 17269.965729000000 X    2 0 0 0 9.62250448649
   35 e     4 19577.511578000001 X    3 0 0 0 8.33333333333
   35 e     5 21781.671472999999 X    4 0 0 0 7.453559925
   35 e     6 23880.928845999999 X    5 0 0 0 6.8041381744
   35 e     7 25873.060825000000 X    6 0 0 0 6.29940788349
   35 e     8 27754.837086000000 X    7 0 0 0 5.89255650989
   35 e     9 29521.625521999998 X    8 0 0 0 5.55555555556
   35 e    10 31167.251054000000 X    9 0 0 0 5.27046276695
   35 e    11 32683.094649999999 X   10 0 0 0 5.0251890763
   35 e    12 34057.128217999998 X   11 0 0 0 4.81125224325
   35 e    13 35271.812062999998 X   12 0 0 0 4.62250163521
   35 e    14 36299.276484000002 X   13 0 0 0 4.45435403187
   35 e    15 37082.036565000002 X   14 0 0 0 4.30331482912
   36 e     1 13006.310573000001 X    0 0 0 0 16.4398987305
   36 e     2 15497.707300000000 X    1 0 0 0 11.6247638744
   36 e     3 17886.916763000001 X    2 0 0 0 9.49157995752
   36 e     4 20173.517100000001 X    3 0 0 0 8.21994936527
   36 e     5 22356.545999999998 X    4 0 0 0 7.35214622094
   36 e     6 24434.351900000001 X    5 0 0 0 6.71156055214
   36 e     7 26404.554300000000 X    6 0 0 0 6.21369766001
   36 e     8 28263.671770000001 X    7 0 0 0 5.81238193719
   36 e     9 30006.777348000000 X    8 0 0 0 5.47996624351
   36 e    10 31627.265291000000 X    9 0 0 0 5.1987524491
   36 e    11 33115.866399999999 X   10 0 0 0 4.95681597097
   36 e    12 34459.540295999999 X   11 0 0 0 4.74578997876
   36 e    13 35638.905463000003 X   12 0 0 0 4.55960752588
   36 e    14 36621.925796000003 X   13 0 0 0 4.39374775164
   36 e    15 37330.597970000003 X   14 0 0 0 4.24476359978
   37 e     1 13678.223800000000 X    0 0 0 0 16.2221421131
   37 e     2 16148.209312000001 X    1 0 0 0 11.4707866935
   37 e     3 18516.001349999999 X    2 0 0 0 9.36585811582
   37 e     4 20781.087473000000 X    3 0 0 0 8.11107105654
   37 e     5 22942.389566999998 X    4 0 0 0 7.2547625011
   37 e     6 24998.112332000001 X    5 0 0 0 6.62266178533
   37 e     7 26945.701988000001 X    6 0 0 0 6.13139339485
   37 e     8 28781.403048000000 X    7 0 0 0 5.73539334676
   37 e     9 30499.968104000000 X    8 0 0 0 5.40738070436
   37 e    10 32094.305165999998 X    9 0 0 0 5.12989176043
   37 e    11 33554.413586000002 X   10 0 0 0 4.89115988045
   37 e    12 34866.071319000002 X   11 0 0 0 4.68292905791
   37 e    13 36007.660152999997 X   12 0 0 0 4.49921270666
   37 e    14 36941.513355000003 X   13 0 0 0 4.33554984762
   38 e     1 14362.971700000000 X    0 0 0 0 16.0128153805
   38 e     2 16811.010500000000 X    1 0 0 0 11.3227703414
   38 e     3 19156.834984000001 X    2 0 0 0 9.24500327042
   38 e     4 21399.835698999999 X    3 0 0 0 8.00640769025
   38 e     5 23538.809952000000 X    4 0 0 0 7.16114874039
   38 e     6 25571.809249999998 X    5 0 0 0 6.53720450461
   38 e     7 27496.087898999998 X    6 0 0 0 6.05227532669
   38 e     8 29307.592417000000 X    7 0 0 0 5.66138517072
   38 e     9 31000.723973000000 X    8 0 0 0 5.33760512684
   38 e    10 32567.840396000000 X    9 0 0 0 5.06369683542
   38 e    11 33998.111897000003 X   10 0 0 0 4.82804549585
   38 e    12 35275.921999999999 X   11 0 0 0 4.62250163521
   38 e    13 36376.880400000002 X   12 0 0 0 4.44115591684
   38 e    14 37255.199919999999 X   13 0 0 0 4.27960492511
   39 e     1 15060.161722999999 X    0 0 0 0 15.8113883008
   39 e     2 17485.719243000000 X    1 0 0 0 11.1803398875
   39 e     3 19809.025281999999 X    2 0 0 0 9.12870929175
   39 e     4 22029.366457000000 X    3 0 0 0 7.90569415042
   39 e     5 24145.405628000000 X    4 0 0 0 7.07106781187
   39 e     6 26155.030962000001 X    5 0 0 0 6.45497224368
   39 e     7 28055.283025000001 X    6 0 0 0 5.97614304667
   39 e     8 29841.785261000001 X    7 0 0 0 5.59016994375
   39 e     9 31508.549435000001 X    8 0 0 0 5.27046276695
   39 e    10 33047.309724999999 X    9 0 0 0 5
   39 e    11 34446.287600000003 X   10 0 0 0 4.76731294623
   39 e    12 35688.200761000000 X   11 0 0 0 4.56435464588
   39 e    13 36745.131800000003 X   12 0 0 0 4.38529009654
   39 e    14 37558.087099999997 X   13 0 0 0 4.22577127364
   40 e     1 15769.394600000000 X    0 0 0 0 15.6173761889
   40 e     2 18171.937099999999 X    1 0 0 0 11.0431526075
   40 e     3 20472.172652000001 X    2 0 0 0 9.01669634667
   40 e     4 22669.276282999999 X    3 0 0 0 7.80868809443
   40 e     5 24761.765852000000 X    4 0 0 0 6.9843029577
   40 e     6 26747.354910999999 X    5 0 0 0 6.37576713063
   40 e     7 28622.844895999999 X    6 0 0 0 5.90281336101
   40 e     8 30383.509770000001 X    7 0 0 0 5.52157630374
   40 e     9 32022.925157000001 X    8 0 0 0 5.20579206295
   40 e    10 33532.116740999998 X    9 0 0 0 4.93864798325
   40 e    11 34898.208219000000 X   10 0 0 0 4.70881609348
   40 e    12 36101.898366000001 X   11 0 0 0 4.50834817334
   40 e    13 37110.622558000003 X   12 0 0 0 4.33148081824
   40 e    14 37842.155862000000 X   13 0 0 0 4.17391935565
   41 e     1 16490.264700000000 X    0 0 0 0 15.4303349962
   41 e     2 18869.258699999998 X    1 0 0 0 10.9108945118
   41 e     3 21145.869900000002 X    2 0 0 0 8.90870806375
   41 e     4 23319.153300000002 X    3 0 0 0 7.7151674981
   41 e     5 25387.470200000000 X    4 0 0 0 6.90065559342
   41 e     6 27348.347099999999 X    5 0 0 0 6.29940788349
   41 e     7 29198.316699999999 X    6 0 0 0 5.8321184352
   41 e     8 30932.275300000001 X    7 0 0 0 5.4554472559
   41 e     9 32543.305100000001 X    8 0 0 0 5.14344499874
   41 e    10 34021.624400000001 X    9 0 0 0 4.87950036474
   41 e    11 35353.070000000000 X   10 0 0 0 4.65242105199
   41 e    12 36515.850700000003 X   11 0 0 0 4.45435403187
   41 e    13 37470.965600000003 X   12 0 0 0 4.27960492511
end
