atoms C O

States X

print_pecs_and_couplings_to_file

jrot 0 - 10

(Defining the integration grid)
grid
 npoints 301
 range   0.8 3.0
 type 0   (nsub)
end

symmetry Cs(M)

DIAGONALIZER
 SYEV
end

(Vibrational basis set)
CONTRACTION
  vib
  vmax  50
END

assign_V_by_count

poten X
name "X1Sigma+"
symmetry +
lambda 0
mult 1
type grid
units Eh
values
   0.70000   -111.876724814466
   0.80000   -112.618495690672
   0.90000   -112.980345614274
   1.00000   -113.138331045244
   1.10000   -113.188011215792
   1.20000   -113.181795458532
   1.25000   -113.167360495839
   1.30000   -113.148619248114
   1.35000   -113.127223829323
   1.40000   -113.104383835866
   1.45000   -113.080975551016
   1.50000   -113.057627017230
   1.55000   -113.034788477427
   1.60000   -113.012794913118
   1.65000   -112.991944386423
   1.68000   -112.980132687248
   1.69000   -112.976335772750
   1.70000   -112.972617931037
   1.71000   -112.968985280201
   1.72000   -112.965444644089
   1.73000   -112.962004232455
   1.74000   -112.958670434469
   1.75000   -112.955452196889
   1.76000   -112.952357921874
   1.78000   -112.946574262611
   1.80000   -112.941381918287
end
dipole X
name "<X|mu|X>"
symmetry +
lambda 0
mult 1
type grid
values
   0.70000    1.317349926710
   0.80000    1.099850149742
   0.90000    0.831813363042
   1.00000    0.529511208394
   1.10000    0.208994161731
   1.20000   -0.113655604711
   1.25000   -0.271093199588
   1.30000   -0.423719133424
   1.35000   -0.570118745419
   1.40000   -0.708782301482
   1.45000   -0.838362218069
   1.50000   -0.956907048171
   1.55000   -1.061763629941
   1.60000   -1.147541340723
   1.65000   -1.203469473767
   1.68000   -1.212535779032
   1.69000   -1.209546477977
   1.70000   -1.202790347433
   1.71000   -1.191893058246
   1.72000   -1.175959606369
   1.73000   -1.154479314132
   1.74000   -1.126872208090
   1.75000   -1.092441221353
   1.76000   -1.050640457395
   1.78000   -0.942573980366
   1.80000   -0.799144563763
end
intensity 
absorption
THRESH_INTES 1e-60
THRESH_LINE 1e-40
TEMPERATURE 2000
thresh_dipole 1e-9
linelist CO_duo_01
J 0 - 40
freq-window 0,20000
energy low 0, 20000 upper 0, 40000
end
