atoms C O

States X

print_pecs_and_couplings_to_file

jrot 0 - 10

(Defining the integration grid)
grid
 npoints 301
 range   0.8 3.0
 type 0   (nsub)
end

symmetry Cs(M)

DIAGONALIZER
 SYEV
end

(Vibrational basis set)
CONTRACTION
  vib
  vmax  80
END

assign_V_by_count

poten X
name "X1Sigma+"
lambda 0
symmetry +
mult   1
type   EMO
values
V0           0.00000000000000E+00     
RE           1.12830243567587E+00  fit
DE           9.42266022642499E+04  fit
RREF        -1.00000000000000E+00     
PL           6.00000000000000E+00     
PR           6.00000000000000E+00     
NL           4.00000000000000E+00     
NR           8.00000000000000E+00     
B0           2.25425723348512E+00  fit
B1          -6.64043378411098E-02  fit
B2           1.90676572135373E-03  fit
B3           1.08267739666483E-01  fit
B4           2.22485007665659E-01  fit
B5          -2.49513479275391E+00  fit
B6           5.72830496085502E+00  fit
B7          -5.60291775880217E+00  fit
B8           2.06140151828412E+00  fit
end


abinitio poten X
name "X1Sigma+"
symmetry +
lambda 0
mult 1
type grid
units cm-1
fit_factor 1e-7
Weighting PS1997 1e-5 80000.0
values
        0.80000000        1.25483301E+05
        0.80733333        1.16718737E+05
        0.81466667        1.08550612E+05
        0.82200000        1.00945150E+05
        0.82933333        9.38685749E+04
        0.83666667        8.72871099E+04
        0.84400000        8.11669790E+04
        0.85133333        7.54744058E+04
        0.85866667        7.01756141E+04
        0.86600000        6.52368276E+04
        0.87333333        6.06242701E+04
        0.88066667        5.63041651E+04
        0.88800000        5.22427364E+04
        0.89533333        4.84062078E+04
        0.90266667        4.47610532E+04
        0.91000000        4.12859457E+04
        0.91733333        3.79770027E+04
        0.92466667        3.48316826E+04
        0.93200000        3.18474443E+04
        0.93933333        2.90217465E+04
        0.94666667        2.63520478E+04
        0.95400000        2.38358070E+04
        0.96133333        2.14704827E+04
        0.96866667        1.92535338E+04
        0.97600000        1.71824188E+04
        0.98333333        1.52545966E+04
        0.99066667        1.34675258E+04
        0.99800000        1.18186651E+04
        1.00533333        1.03052717E+04
        1.01266667        8.92270892E+03
        1.02000000        7.66530251E+03
        1.02733333        6.52736755E+03
        1.03466667        5.50321912E+03
        1.04200000        4.58717232E+03
        1.04933333        3.77354223E+03
        1.05666667        3.05664393E+03
        1.06400000        2.43079253E+03
        1.07133333        1.89030309E+03
        1.07866667        1.42949072E+03
        1.08600000        1.04267050E+03
        1.09333333        7.24157521E+02
        1.10066667        4.68267335E+02
        1.10800000        2.70124684E+02
        1.11533333        1.27323628E+02
        1.12266667        3.79275923E+01
        1.13000000        0.00000000E+00
        1.13733333        1.16042751E+01
        1.14466667        7.08038415E+01
        1.15200000        1.75662123E+02
        1.15933333        3.24242544E+02
        1.16666667        5.14608528E+02
        1.17400000        7.44823498E+02
        1.18133333        1.01295088E+03
        1.18866667        1.31705410E+03
        1.19600000        1.65519657E+03
        1.20333333        2.02544593E+03
        1.21066667        2.42599078E+03
        1.21800000        2.85515589E+03
        1.22533333        3.31127335E+03
        1.23266667        3.79267520E+03
        1.24000000        4.29769350E+03
        1.24733333        4.82466033E+03
        1.25466667        5.37193255E+03
        1.26200000        5.93818970E+03
        1.26933333        6.52233695E+03
        1.27666667        7.12328412E+03
        1.28400000        7.73994102E+03
        1.29133333        8.37121746E+03
        1.29866667        9.01602323E+03
        1.30600000        9.67329144E+03
        1.31333333        1.03421175E+04
        1.32066667        1.10216660E+04
        1.32800000        1.17111018E+04
        1.33533333        1.24095896E+04
        1.34266667        1.31162943E+04
        1.35000000        1.38303807E+04
        1.35733333        1.45510537E+04
        1.36466667        1.52776788E+04
        1.37200000        1.60096615E+04
        1.37933333        1.67464072E+04
        1.38666667        1.74873215E+04
        1.39400000        1.82318099E+04
        1.40133333        1.89792781E+04
        1.40866667        1.97291770E+04
        1.41600000        2.04810640E+04
        1.42333333        2.12345114E+04
        1.43066667        2.19890919E+04
        1.43800000        2.27443779E+04
        1.44533333        2.34999419E+04
        1.45266667        2.42553574E+04
        1.46000000        2.50102459E+04
        1.46733333        2.57642972E+04
        1.47466667        2.65172066E+04
        1.48200000        2.72686691E+04
        1.48933333        2.80183801E+04
        1.49666667        2.87660346E+04
        1.50400000        2.95113301E+04
        1.51133333        3.02540051E+04
        1.51866667        3.09938343E+04
        1.52600000        3.17305939E+04
        1.53333333        3.24640602E+04
        1.54066667        3.31940093E+04
        1.54800000        3.39202174E+04
        1.55533333        3.46424627E+04
        1.56266667        3.53605428E+04
        1.57000000        3.60742662E+04
        1.57733333        3.67834411E+04
        1.58466667        3.74878761E+04
        1.59200000        3.81873796E+04
        1.59933333        3.88817600E+04
        1.60666667        3.95708187E+04
        1.61400000        4.02543196E+04
        1.62133333        4.09320146E+04
        1.62866667        4.16036555E+04
        1.63600000        4.22689939E+04
        1.64333333        4.29277818E+04
        1.65066667        4.35797708E+04
        1.65800000        4.42246821E+04
        1.66533333        4.48621433E+04
        1.67266667        4.54917643E+04
        1.68000000        4.61131549E+04
        1.68733333        4.67259030E+04
        1.69466667        4.73295089E+04
        1.70200000        4.79234477E+04
        1.70933333        4.85071855E+04
        1.71666667        4.90801412E+04
        1.72400000        4.96415602E+04
        1.73133333        5.01908366E+04
        1.73866667        5.07274348E+04
        1.74600000        5.12505529E+04
        1.75333333        5.17593303E+04
        1.76066667        5.22533061E+04
        1.76800000        5.27320782E+04
        1.77533333        5.31940239E+04
        1.78266667        5.36373265E+04
        1.79000000        5.40622496E+04
        1.79733333        5.44720311E+04
        1.80466667        5.48699963E+04
        1.81200000        5.52576334E+04
        1.81933333        5.56351454E+04
        1.82666667        5.60027090E+04
        1.83400000        5.63605011E+04
        1.84133333        5.67086982E+04
        1.84866667        5.70474773E+04
        1.85600000        5.73770149E+04
        1.86333333        5.76974879E+04
        1.87066667        5.80090900E+04
        1.87800000        5.83120787E+04
        1.88533333        5.86067262E+04
        1.89266667        5.88933046E+04
        1.90000000        5.91720861E+04
        1.90733333        5.94433429E+04
        1.91466667        5.97073473E+04
        1.92200000        5.99643713E+04
        1.92933333        6.02146861E+04
        1.93666667        6.04585168E+04
        1.94400000        6.06960317E+04
        1.95133333        6.09273951E+04
        1.95866667        6.11527715E+04
        1.96600000        6.13723251E+04
        1.97333333        6.15862203E+04
        1.98066667        6.17946217E+04
        1.98800000        6.19976934E+04
        1.99533333        6.21955975E+04
        2.00266667        6.23884763E+04
        2.01000000        6.25764639E+04
        2.01733333        6.27596942E+04
        2.02466667        6.29383010E+04
        2.03200000        6.31124182E+04
        2.03933333        6.32821798E+04
        2.04666667        6.34477196E+04
        2.05400000        6.36091714E+04
        2.06133333        6.37666596E+04
        2.06866667        6.39202859E+04
        2.07600000        6.40701492E+04
        2.08333333        6.42163482E+04
        2.09066667        6.43589816E+04
        2.09800000        6.44981481E+04
        2.10533333        6.46339465E+04
        2.11266667        6.47664756E+04
        2.12000000        6.48958333E+04
        2.12733333        6.50221059E+04
        2.13466667        6.51453700E+04
        2.14200000        6.52657017E+04
        2.14933333        6.53831774E+04
        2.15666667        6.54978732E+04
        2.16400000        6.56098654E+04
        2.17133333        6.57192303E+04
        2.17866667        6.58260441E+04
        2.18600000        6.59303804E+04
        2.19333333        6.60323010E+04
        2.20066667        6.61318646E+04
        2.20800000        6.62291296E+04
        2.21533333        6.63241545E+04
        2.22266667        6.64169980E+04
        2.23000000        6.65077186E+04
        2.23733333        6.65963747E+04
        2.24466667        6.66830250E+04
        2.25200000        6.67677227E+04
        2.25933333        6.68505142E+04
        2.26666667        6.69314447E+04
        2.27400000        6.70105599E+04
        2.28133333        6.70879051E+04
        2.28866667        6.71635260E+04
        2.29600000        6.72374680E+04
        2.30333333        6.73097766E+04
        2.31066667        6.73804967E+04
        2.31800000        6.74496669E+04
        2.32533333        6.75173230E+04
        2.33266667        6.75835004E+04
        2.34000000        6.76482347E+04
        2.34733333        6.77115614E+04
        2.35466667        6.77735161E+04
        2.36200000        6.78341343E+04
        2.36933333        6.78934516E+04
        2.37666667        6.79515016E+04
        2.38400000        6.80083133E+04
        2.39133333        6.80639146E+04
        2.39866667        6.81183335E+04
        2.40600000        6.81715978E+04
        2.41333333        6.82237357E+04
        2.42066667        6.82747750E+04
        2.42800000        6.83247438E+04
        2.43533333        6.83736698E+04
        2.44266667        6.84215780E+04
        2.45000000        6.84684908E+04
        2.45733333        6.85144303E+04
        2.46466667        6.85594185E+04
        2.47200000        6.86034776E+04
        2.47933333        6.86466298E+04
        2.48666667        6.86888973E+04
        2.49400000        6.87303020E+04
        2.50133333        6.87708657E+04
        2.50866667        6.88106070E+04
        2.51600000        6.88495434E+04
        2.52333333        6.88876927E+04
        2.53066667        6.89250724E+04
        2.53800000        6.89617002E+04
        2.54533333        6.89975938E+04
        2.55266667        6.90327707E+04
        2.56000000        6.90672485E+04
        2.56733333        6.91010437E+04
        2.57466667        6.91341707E+04
        2.58200000        6.91666434E+04
        2.58933333        6.91984762E+04
        2.59666667        6.92296829E+04
        2.60400000        6.92602779E+04
        2.61133333        6.92902752E+04
        2.61866667        6.93196888E+04
        2.62600000        6.93485329E+04
        2.63333333        6.93768197E+04
        2.64066667        6.94045607E+04
        2.64800000        6.94317672E+04
        2.65533333        6.94584507E+04
        2.66266667        6.94846224E+04
        2.67000000        6.95102939E+04
        2.67733333        6.95354763E+04
        2.68466667        6.95601812E+04
        2.69200000        6.95844195E+04
        2.69933333        6.96082006E+04
        2.70666667        6.96315336E+04
        2.71400000        6.96544278E+04
        2.72133333        6.96768924E+04
        2.72866667        6.96989364E+04
        2.73600000        6.97205691E+04
        2.74333333        6.97417996E+04
        2.75066667        6.97626371E+04
        2.75800000        6.97830899E+04
        2.76533333        6.98031658E+04
        2.77266667        6.98228724E+04
        2.78000000        6.98422172E+04
        2.78733333        6.98612079E+04
        2.79466667        6.98798520E+04
        2.80200000        6.98981572E+04
        2.80933333        6.99161311E+04
        2.81666667        6.99337810E+04
        2.82400000        6.99511132E+04
        2.83133333        6.99681333E+04
        2.83866667        6.99848469E+04
        2.84600000        7.00012597E+04
        2.85333333        7.00173773E+04
        2.86066667        7.00332055E+04
        2.86800000        7.00487497E+04
        2.87533333        7.00640158E+04
        2.88266667        7.00790096E+04
        2.89000000        7.00937379E+04
        2.89733333        7.01082073E+04
        2.90466667        7.01224246E+04
        2.91200000        7.01363965E+04
        2.91933333        7.01501297E+04
        2.92666667        7.01636310E+04
        2.93400000        7.01769071E+04
        2.94133333        7.01899644E+04
        2.94866667        7.02028044E+04
        2.95600000        7.02154249E+04
        2.96333333        7.02278235E+04
        2.97066667        7.02399981E+04
        2.97800000        7.02519463E+04
        2.98533333        7.02636659E+04
        2.99266667        7.02751546E+04
        3.00000000        7.02864101E+04
end
dipole X
name "<X|mu|X>"
symmetry +
lambda 0
mult 1
type grid
values
   0.70000    1.317349926710
   0.80000    1.099850149742
   0.90000    0.831813363042
   1.00000    0.529511208394
   1.10000    0.208994161731
   1.20000   -0.113655604711
   1.25000   -0.271093199588
   1.30000   -0.423719133424
   1.35000   -0.570118745419
   1.40000   -0.708782301482
   1.45000   -0.838362218069
   1.50000   -0.956907048171
   1.55000   -1.061763629941
   1.60000   -1.147541340723
   1.65000   -1.203469473767
   1.68000   -1.212535779032
   1.69000   -1.209546477977
   1.70000   -1.202790347433
   1.71000   -1.191893058246
   1.72000   -1.175959606369
   1.73000   -1.154479314132
   1.74000   -1.126872208090
   1.75000   -1.092441221353
   1.76000   -1.050640457395
   1.78000   -0.942573980366
   1.80000   -0.799144563763
end

intensity off
absorption
THRESH_INTES 1e-60
THRESH_LINE 1e-40
TEMPERATURE 2000
thresh_dipole 1e-9
linelist CO_duo_01
J 0 - 40
freq-window 0,20000
energy low 0, 20000 upper 0, 40000
end


FITTING 
JLIST    0 - 10
itmax 1000
fit_factor  1e6
fit_type  DGELSS
fit_scale  0.1
output   f04
lock     -8000
robust  0.0001
energies  (J Parity N Energy State v Lambda Sigma Omega Weight)
       0  e        1              0   X        0     0       0       0    320000.00000000
       0  e        2    2143.271107   X        1     0       0       0       442.22264949
       0  e        3     4260.06217   X        2     0       0       0       861.74597227
       0  e        4    6350.439055   X        3     0       0       0     10679.19692439
       0  e        5    8414.469295   X        4     0       0       0       285.71428571
       0  e        6    10452.22217   X        5     0       0       0         6.48148148
       0  e        7    12463.76852   X        6     0       0       0         2.61894369
       0  e        8    14449.18134   X        7     0       0       0         4.07608696
       0  e        9    16408.53468   X        8     0       0       0         3.85653683
       0  e       10    18341.90447   X        9     0       0       0         2.75427897
       0  e       11    20249.36832   X       10     0       0       0         2.32249502
       0  e       12     22131.0051   X       11     0       0       0         2.34879624
       0  e       13    23986.89521   X       12     0       0       0         2.02183583
       0  e       14    25817.12007   X       13     0       0       0         1.98093351
       0  e       15    27621.76228   X       14     0       0       0         1.60882556
       0  e       16    29400.90537   X       15     0       0       0         1.39995692
       0  e       17    31154.63366   X       16     0       0       0         0.88845015
       0  e       18    32883.03145   X       17     0       0       0         1.15830116
       0  e       19    34586.18387   X       18     0       0       0         0.88845015
       0  e       20    36264.17562   X       19     0       0       0         1.03383459
       0  e       21    37917.09129   X       20     0       0       0         0.90661831
       0  e       22    39545.01475   X       21     0       0       0         0.71174377
       0  e       23    41148.02905   X       22     0       0       0         0.70609003
       0  e       24    42726.21551   X       23     0       0       0         0.79295154
       0  e       25    44279.65411   X       24     0       0       0         0.78740157
       0  e       26    45808.42261   X       25     0       0       0         0.70484581
       0  e       27    47312.59591   X       26     0       0       0         0.78740157
       0  e       28    48792.24624   X       27     0       0       0         0.70484581
       0  e       29    50247.44204   X       28     0       0       0         0.69991251
       0  e       30    51678.24783   X       29     0       0       0         0.79295154
       0  e       31    53084.72344   X       30     0       0       0         0.78740157
       0  e       32    54466.92345   X       31     0       0       0         0.69565217
       0  e       33    55824.89684   X       32     0       0       0         0.69084629
       0  e       34    57158.68589   X       33     0       0       0         0.68610635
       0  e       35    58468.32584   X       34     0       0       0         0.68201194
       0  e       36    59753.84398   X       35     0       0       0         0.67796610
       0  e       37    61015.25899   X       36     0       0       0         0.65359477
       0  e       38    62252.57971   X       37     0       0       0         0.56864338
       0  e       39    63465.80491   X       38     0       0       0         0.46296296
       0  e       40    64654.92145   X       39     0       0       0         0.28409091
       0  e       41    65819.90403   X       40     0       0       0         0.06770481
       1  e        1    3.845033415   X        0     0       0       0  33573141.48681060
       1  e        2    2147.081134   X        1     0       0       0      3279.83251919
       1  e        3    4263.837196   X        2     0       0       0      1410.93474427
       1  e        4    6354.179079   X        3     0       0       0     24813.89578164
       1  e        5    8418.174319   X        4     0       0       0      1846.15384615
       1  e        6    10455.89217   X        5     0       0       0        13.58024691
       1  e        7    12467.40368   X        6     0       0       0        14.32855715
       1  e        8    14452.78138   X        7     0       0       0         8.89108422
       1  e        9    16412.09974   X        8     0       0       0         8.17160368
       1  e       10    18345.43456   X        9     0       0       0         7.47590006
       1  e       11    20252.86344   X       10     0       0       0         6.00801068
       1  e       12    22134.46528   X       11     0       0       0         4.94382022
       1  e       13    23990.32041   X       12     0       0       0         4.46006217
       1  e       14    25820.51034   X       13     0       0       0         4.20948372
       1  e       15     27625.1176   X       14     0       0       0         3.79223167
       1  e       16    29404.22574   X       15     0       0       0         2.90760284
       1  e       17      31157.919   X       16     0       0       0         2.03355363
       1  e       18      32886.282   X       17     0       0       0         2.60389543
       1  e       19     34589.3995   X       18     0       0       0         2.17176703
       1  e       20    36267.35637   X       19     0       0       0         2.25563910
       1  e       21    37920.23712   X       20     0       0       0         1.67286245
       1  e       22    39548.12575   X       21     0       0       0         1.74953959
       1  e       23      41151.105   X       22     0       0       0         2.02205882
       1  e       24     42729.2566   X       23     0       0       0         1.73357664
       1  e       25    44282.66033   X       24     0       0       0         1.47058824
       1  e       26    45811.39382   X       25     0       0       0         1.82481752
       1  e       27    47315.53222   X       26     0       0       0         1.56250000
       1  e       28     48795.1476   X       27     0       0       0         1.55109489
       1  e       29    50250.30844   X       28     0       0       0         1.65441176
       1  e       30    51681.07918   X       29     0       0       0         1.64233577
       1  e       31    53087.51976   X       30     0       0       0         1.53985507
       1  e       32    54469.68474   X       31     0       0       0         1.52877698
       1  e       33    55827.62298   X       32     0       0       0         1.42857143
       1  e       34    57161.37684   X       33     0       0       0         1.50842946
       1  e       35    58470.98157   X       34     0       0       0         1.36402387
       1  e       36    59756.46434   X       35     0       0       0         1.35593220
       1  e       37    61017.84385   X       36     0       0       0         1.14379085
       1  e       38    62255.12903   X       37     0       0       0         1.13728676
       1  e       39     63468.3185   X       38     0       0       0         1.02201258
       1  e       40    64657.39938   X       39     0       0       0         0.78802206
       1  e       41    65822.34635   X       40     0       0       0         0.20804438
       2  e        1    11.53495335   X        0     0       0       0  26282323.01822810
       2  e        2    2154.701041   X        1     0       0       0      4291.84549356
       2  e        3    4271.387097   X        2     0       0       0      1588.72901679
       2  e        4    6361.658979   X        3     0       0       0     21674.45813855
       2  e        5     8425.58423   X        4     0       0       0      1371.42857143
       2  e        6    10463.23209   X        5     0       0       0        12.96296296
       2  e        7    12474.67361   X        6     0       0       0        13.66211263
       2  e        8    14459.98134   X        7     0       0       0        10.86688071
       2  e        9    16419.22974   X        8     0       0       0         9.95914198
       2  e       10    18352.49461   X        9     0       0       0         6.88569742
       2  e       11    20259.85355   X       10     0       0       0         7.17623498
       2  e       12    22141.38546   X       11     0       0       0         5.39325843
       2  e       13    23997.17068   X       12     0       0       0         4.46006217
       2  e       14    25827.29071   X       13     0       0       0         4.58090875
       2  e       15    27631.82808   X       14     0       0       0         4.02206389
       2  e       16    29410.86635   X       15     0       0       0         3.33835882
       2  e       17    31164.48976   X       16     0       0       0         3.25368582
       2  e       18    32892.78291   X       17     0       0       0         3.02051870
       2  e       19    34595.83057   X       18     0       0       0         2.56663376
       2  e       20    36273.71761   X       19     0       0       0         2.16165414
       2  e       21    37926.52855   X       20     0       0       0         2.04460967
       2  e       22    39554.34737   X       21     0       0       0         1.93370166
       2  e       23    41157.25681   X       22     0       0       0         1.83823529
       2  e       24     42735.3386   X       23     0       0       0         1.82481752
       2  e       25     44288.6725   X       24     0       0       0         1.93014706
       2  e       26    45817.33615   X       25     0       0       0         1.45985401
       2  e       27    47321.40468   X       26     0       0       0         1.56250000
       2  e       28    48800.95015   X       27     0       0       0         1.64233577
       2  e       29    50256.04105   X       28     0       0       0         1.74632353
       2  e       30    51686.74179   X       29     0       0       0         1.64233577
       2  e       31     53093.1123   X       30     0       0       0         1.53985507
       2  e       32    54475.20711   X       31     0       0       0         1.52877698
       2  e       33    55833.07509   X       32     0       0       0         1.51785714
       2  e       34    57166.75858   X       33     0       0       0         1.33096717
       2  e       35    58476.29276   X       34     0       0       0         1.36402387
       2  e       36    59761.70488   X       35     0       0       0         1.27118644
       2  e       37     61023.0135   X       36     0       0       0         1.31040131
       2  e       38    62260.22757   X       37     0       0       0         1.30293160
       2  e       39    63473.34567   X       38     0       0       0         0.97165992
       2  e       40    64662.35486   X       39     0       0       0         0.70921986
       2  e       41    65827.22983   X       40     0       0       0         0.41608877
       2  e       42     66967.9308   X       41     0       0       0         0.04992511
       3  e        1    23.06946601   X        0     0       0       0  20422291.45032880
       3  e        2    2166.130536   X        1     0       0       0      5128.20512821
       3  e        3    4282.711582   X        2     0       0       0      1528.51263962
       3  e        4    6372.878462   X        3     0       0       0     28287.84119107
       3  e        5    8436.698718   X        4     0       0       0      1305.55555556
       3  e        6    10474.24163   X        5     0       0       0        12.96296296
       3  e        7    12485.57811   X        6     0       0       0        17.29106628
       3  e        8    14470.78095   X        7     0       0       0        19.09090909
       3  e        9    16429.92437   X        8     0       0       0         7.15252271
       3  e       10    18363.08436   X        9     0       0       0         8.53174603
       3  e       11    20270.33834   X       10     0       0       0         6.51242502
       3  e       12    22151.76539   X       11     0       0       0         5.86377988
       3  e       13    24007.44573   X       12     0       0       0         5.25677315
       3  e       14    25837.46091   X       13     0       0       0         4.45710041
       3  e       15    27641.89346   X       14     0       0       0         3.79223167
       3  e       16    29420.82695   X       15     0       0       0         3.76911480
       3  e       17    31174.34553   X       16     0       0       0         3.42996238
       3  e       18    32902.53389   X       17     0       0       0         3.21381942
       3  e       19    34605.47692   X       18     0       0       0         2.36920039
       3  e       20    36283.25917   X       19     0       0       0         2.43902439
       3  e       21    37935.96537   X       20     0       0       0         2.20517737
       3  e       22    39563.67938   X       21     0       0       0         1.92492782
       3  e       23    41166.48418   X       22     0       0       0         1.81470869
       3  e       24    42744.46121   X       23     0       0       0         2.02117421
       3  e       25    44297.69034   X       24     0       0       0         1.71919771
       3  e       26    45826.24928   X       25     0       0       0         1.82868142
       3  e       27      47330.213   X       26     0       0       0         1.81470869
       3  e       28     48809.6536   X       27     0       0       0         1.82868142
       3  e       29    50264.63958   X       28     0       0       0         1.62368672
       3  e       30    51695.23537   X       29     0       0       0         1.70616114
       3  e       31    53101.50075   X       30     0       0       0         1.59774436
       3  e       32     54483.4903   X       31     0       0       0         1.49253731
       3  e       33     55841.2529   X       32     0       0       0         1.42348754
       3  e       34    57174.83083   X       33     0       0       0         1.37693632
       3  e       35    58484.25922   X       34     0       0       0         1.36869119
       3  e       36    59769.56527   X       35     0       0       0         1.35938828
       3  e       37    61030.76756   X       36     0       0       0         1.26689189
       3  e       38      62267.875   X       37     0       0       0         1.34228188
       3  e       39    63480.88604   X       38     0       0       0         1.13636364
       3  e       40    64669.78769   X       39     0       0       0         0.71656051
       3  e       41    65834.55463   X       40     0       0       0         0.36258158
       3  e       42    66975.14752   X       41     0       0       0         0.13793103
       4  e        1    38.44813068   X        0     0       0       0  19484412.47002400
       4  e        2    2181.369178   X        1     0       0       0      5472.41456332
       4  e        3    4297.810213   X        2     0       0       0      1672.86245353
       4  e        4    6387.837088   X        3     0       0       0     27695.35113749
       4  e        5    8451.517354   X        4     0       0       0      2076.92307692
       4  e        6     10488.9203   X        5     0       0       0        13.88888889
       4  e        7    12500.11692   X        6     0       0       0        13.56531996
       4  e        8    14485.17971   X        7     0       0       0        11.65674603
       4  e        9    16444.18322   X        8     0       0       0        10.87801088
       4  e       10    18377.20327   X        9     0       0       0         8.44838244
       4  e       11    20284.31743   X       10     0       0       0         6.71372009
       4  e       12    22165.60459   X       11     0       0       0         5.99250936
       4  e       13    24021.14507   X       12     0       0       0         5.40613596
       4  e       14    25851.02047   X       13     0       0       0         4.32312253
       4  e       15    27655.31328   X       14     0       0       0         4.25189612
       4  e       16    29434.10698   X       15     0       0       0         4.50397061
       4  e       17    31187.48587   X       16     0       0       0         3.50504514
       4  e       18     32915.5345   X       17     0       0       0         3.22883033
       4  e       19    34618.33784   X       18     0       0       0         2.77663513
       4  e       20    36295.98048   X       19     0       0       0         2.42008672
       4  e       21    37948.54702   X       20     0       0       0         2.63504611
       4  e       22    39576.12144   X       21     0       0       0         2.41084882
       4  e       23     41178.7866   X       22     0       0       0         2.33100233
       4  e       24    42756.62403   X       23     0       0       0         2.10949272
       4  e       25     44309.7135   X       24     0       0       0         2.22965440
       4  e       26    45838.13274   X       25     0       0       0         2.00904068
       4  e       27    47341.95672   X       26     0       0       0         1.92561062
       4  e       28    48821.25752   X       27     0       0       0         1.70768458
       4  e       29    50276.10363   X       28     0       0       0         2.09163347
       4  e       30    51706.55935   X       29     0       0       0         1.97433366
       4  e       31    53112.68459   X       30     0       0       0         1.77902622
       4  e       32    54494.53387   X       31     0       0       0         1.53429603
       4  e       33    55852.15594   X       32     0       0       0         1.52329749
       4  e       34    57185.59309   X       33     0       0       0         1.42475512
       4  e       35    58494.88042   X       34     0       0       0         1.32625995
       4  e       36    59780.04511   X       35     0       0       0         1.40474100
       4  e       37    61041.10561   X       36     0       0       0         1.35478408
       4  e       38    62278.07079   X       37     0       0       0         1.26262626
       4  e       39    63490.93908   X       38     0       0       0         1.08695652
       4  e       40    64679.69748   X       39     0       0       0         0.88424437
       4  e       41    65844.32038   X       40     0       0       0         0.44247788
       4  e       42    66984.76813   X       41     0       0       0         0.14265335
       5  e        1    57.67035976   X        0     0       0       0  15821936.17591850
       5  e        2    2200.416377   X        1     0       0       0      6367.83618429
       5  e        3    4316.682396   X        2     0       0       0      2135.63132259
       5  e        4    6406.534268   X        3     0       0       0     26921.19432208
       5  e        5    8470.039547   X        4     0       0       0      2153.84615385
       5  e        6    10507.26763   X        5     0       0       0        50.00000000
       5  e        7    12518.28914   X        6     0       0       0        19.58333333
       5  e        8    14503.17707   X        7     0       0       0        21.42857143
       5  e        9    16462.00563   X        8     0       0       0        12.17487548
       5  e       10    18394.85083   X        9     0       0       0         7.88218212
       5  e       11    20301.79013   X       10     0       0       0         7.36932305
       5  e       12    22182.90249   X       11     0       0       0         7.06660653
       5  e       13     24038.2682   X       12     0       0       0         4.98719504
       5  e       14    25867.96879   X       13     0       0       0         5.32375882
       5  e       15    27672.08688   X       14     0       0       0         4.87742267
       5  e       16    29450.70598   X       15     0       0       0         4.75113122
       5  e       17    31203.91012   X       16     0       0       0         3.54060633
       5  e       18    32931.78422   X       17     0       0       0         3.81762653
       5  e       19    34634.41282   X       18     0       0       0         2.77422108
       5  e       20      36311.881   X       19     0       0       0         2.94550810
       5  e       21    37964.27296   X       20     0       0       0         2.84360190
       5  e       22    39591.67289   X       21     0       0       0         3.00429185
       5  e       23    41194.16352   X       22     0       0       0         2.76213747
       5  e       24     42771.8264   X       23     0       0       0         2.46781116
       5  e       25    44324.74131   X       24     0       0       0         2.23095719
       5  e       26    45852.98592   X       25     0       0       0         2.14592275
       5  e       27    47356.63524   X       26     0       0       0         1.91224902
       5  e       28    48835.76129   X       27     0       0       0         2.20913108
       5  e       29    50290.43252   X       28     0       0       0         2.07920792
       5  e       30    51720.71326   X       29     0       0       0         1.99052133
       5  e       31    53126.66332   X       30     0       0       0         1.79414542
       5  e       32    54508.33717   X       31     0       0       0         1.77902622
       5  e       33    55865.78359   X       32     0       0       0         1.67286245
       5  e       34    57199.04479   X       33     0       0       0         1.56826568
       5  e       35    58508.15578   X       34     0       0       0         1.50709220
       5  e       36    59793.14374   X       35     0       0       0         1.58450704
       5  e       37    61054.02699   X       36     0       0       0         1.48731409
       5  e       38     62290.8144   X       37     0       0       0         1.27226463
       5  e       39    63503.50427   X       38     0       0       0         1.18043845
       5  e       40    64692.08341   X       39     0       0       0         0.74503311
       5  e       41    65856.52635   X       40     0       0       0         0.51546392
       5  e       42    66996.79345   X       41     0       0       0         0.13966480
       6  e        1    80.73541887   X        0     0       0       0  14687882.49694000
       6  e        2    2223.271402   X        1     0       0       0      6638.58036512
       6  e        3      4339.3274   X        2     0       0       0      2044.60966543
       6  e        4    6428.969269   X        3     0       0       0     27996.07072692
       6  e        5    8492.264561   X        4     0       0       0      2500.00000000
       6  e        6     10529.2825   X        5     0       0       0        45.95404595
       6  e        7    12540.09421   X        6     0       0       0        15.33333333
       6  e        8    14524.77222   X        7     0       0       0        27.50000000
       6  e        9    16483.39097   X        8     0       0       0        13.44537815
       6  e       10    18416.02628   X        9     0       0       0         8.44838244
       6  e       11    20322.75577   X       10     0       0       0         8.43518678
       6  e       12    22203.65833   X       11     0       0       0         6.29213483
       6  e       13    24058.81426   X       12     0       0       0         5.94674956
       6  e       14     25888.3052   X       13     0       0       0         5.78687368
       6  e       15    27692.21363   X       14     0       0       0         5.71428571
       6  e       16      29470.623   X       15     0       0       0         4.85954723
       6  e       17    31223.61766   X       16     0       0       0         3.84794776
       6  e       18    32951.28211   X       17     0       0       0         4.20741415
       6  e       19    34653.70139   X       18     0       0       0         3.16283128
       6  e       20    36330.95991   X       19     0       0       0         3.30631399
       6  e       21    37983.14256   X       20     0       0       0         3.49002072
       6  e       22    39610.33295   X       21     0       0       0         3.50758090
       6  e       23     41212.6142   X       22     0       0       0         3.08995193
       6  e       24    42790.06765   X       23     0       0       0         2.90260159
       6  e       25    44342.77308   X       24     0       0       0         2.74662394
       6  e       26    45870.80813   X       25     0       0       0         2.26295542
       6  e       27    47374.24785   X       26     0       0       0         2.21776323
       6  e       28    48853.16417   X       27     0       0       0         1.90858865
       6  e       29    50307.62556   X       28     0       0       0         1.89243028
       6  e       30    51737.69628   X       29     0       0       0         1.98216056
       6  e       31    53143.43611   X       30     0       0       0         1.96656834
       6  e       32    54524.89951   X       31     0       0       0         2.04678363
       6  e       33     55882.1351   X       32     0       0       0         1.67910448
       6  e       34    57215.18515   X       33     0       0       0         1.85185185
       6  e       35    58524.08454   X       34     0       0       0         1.74632353
       6  e       36    59808.86039   X       35     0       0       0         1.76678445
       6  e       37    61069.53096   X       36     0       0       0         1.58870256
       6  e       38    62306.10502   X       37     0       0       0         1.48992112
       6  e       39    63518.58071   X       38     0       0       0         1.17746005
       6  e       40    64706.94483   X       39     0       0       0         0.72347267
       6  e       41     65871.1715   X       40     0       0       0         0.44247788
       6  e       42    67011.22264   X       41     0       0       0         0.07062147
       7  e        1    107.6424268   X        0     0       0       0   3377984.85730926
       7  e        2    2249.933369   X        1     0       0       0      6913.09255079
       7  e        3    4365.744344   X        2     0       0       0      1988.63636364
       7  e        4    6455.141209   X        3     0       0       0     25452.76554087
       7  e        5    8518.191519   X        4     0       0       0      3930.71285809
       7  e        6    10554.96454   X        5     0       0       0        16.04938272
       7  e        7    12565.53123   X        6     0       0       0        20.49180328
       7  e        8    14549.96431   X        7     0       0       0        30.00000000
       7  e        9    16508.33823   X        8     0       0       0        12.72827892
       7  e       10    18440.72871   X        9     0       0       0         9.95644057
       7  e       11    20347.21336   X       10     0       0       0         7.54070266
       7  e       12     22227.8712   X       11     0       0       0         7.66801985
       7  e       13    24082.78245   X       12     0       0       0         7.30042850
       7  e       14    25912.02873   X       13     0       0       0         6.48148148
       7  e       15    27715.69257   X       14     0       0       0         5.64754204
       7  e       16    29493.85743   X       15     0       0       0         4.78529152
       7  e       17     31246.6075   X       16     0       0       0         4.89236791
       7  e       18    32974.02753   X       17     0       0       0         4.08068089
       7  e       19    34676.20227   X       18     0       0       0         3.74772460
       7  e       20    36353.21651   X       19     0       0       0         4.08068089
       7  e       21    38005.15477   X       20     0       0       0         3.75085247
       7  e       22    39632.10085   X       21     0       0       0         3.82919471
       7  e       23    41234.13767   X       22     0       0       0         3.05810398
       7  e       24    42811.34681   X       23     0       0       0         3.32717190
       7  e       25    44363.80781   X       24     0       0       0         2.50056831
       7  e       26    45891.59843   X       25     0       0       0         2.57510730
       7  e       27    47394.79361   X       26     0       0       0         2.23095719
       7  e       28    48873.46525   X       27     0       0       0         2.20913108
       7  e       29    50327.68182   X       28     0       0       0         2.40812480
       7  e       30    51757.50752   X       29     0       0       0         1.87747036
       7  e       31    53163.00204   X       30     0       0       0         2.05680705
       7  e       32    54544.21988   X       31     0       0       0         1.85909980
       7  e       33    55901.20959   X       32     0       0       0         2.23084384
       7  e       34    57234.01323   X       33     0       0       0         1.85701021
       7  e       35     58542.6658   X       34     0       0       0         2.11981567
       7  e       36    59827.19423   X       35     0       0       0         1.93370166
       7  e       37    61087.61655   X       36     0       0       0         1.58311346
       7  e       38    62323.94171   X       37     0       0       0         1.35708227
       7  e       39    63536.16758   X       38     0       0       0         1.18043845
       7  e       40    64724.28088   X       39     0       0       0         0.91059603
       7  e       41    65888.25558   X       40     0       0       0         0.51546392
       7  e       42    67028.05231   X       41     0       0       0         0.06756757
       8  e        1    138.3903551   X        0     0       0       0   2380952.38095238
       8  e        2    2280.401251   X        1     0       0       0      7141.87611592
       8  e        3    4395.932201   X        2     0       0       0      1872.65917603
       8  e        4    6485.049061   X        3     0       0       0     34843.20557491
       8  e        5    8547.819389   X        4     0       0       0      2471.81266262
       8  e        6    10584.31243   X        5     0       0       0        41.95804196
       8  e        7     12594.5992   X        6     0       0       0        17.18695195
       8  e        8    14578.75251   X        7     0       0       0        28.88888889
       8  e        9    16536.84645   X        8     0       0       0        14.84593838
       8  e       10    18468.95717   X        9     0       0       0         9.89078920
       8  e       11    20375.16202   X       10     0       0       0         7.74660010
       8  e       12    22255.54014   X       11     0       0       0         8.51221318
       8  e       13    24110.17174   X       12     0       0       0         6.88140556
       8  e       14    25939.13838   X       13     0       0       0         5.92801694
       8  e       15    27742.52261   X       14     0       0       0         5.51724138
       8  e       16    29520.40795   X       15     0       0       0         5.72798721
       8  e       17    31272.87863   X       16     0       0       0         5.10344828
       8  e       18    33000.01933   X       17     0       0       0         4.54855583
       8  e       19    34701.91474   X       18     0       0       0         4.53343408
       8  e       20    36378.64966   X       19     0       0       0         3.99588994
       8  e       21    38030.30857   X       20     0       0       0         4.19678247
       8  e       22     39656.9755   X       21     0       0       0         3.38626810
       8  e       23    41258.73303   X       22     0       0       0         3.84043608
       8  e       24    42835.66282   X       23     0       0       0         3.42504852
       8  e       25    44387.84459   X       24     0       0       0         2.74662394
       8  e       26     45915.3558   X       25     0       0       0         2.48925096
       8  e       27    47418.27143   X       26     0       0       0         1.79533214
       8  e       28    48896.66353   X       27     0       0       0         2.42156243
       8  e       29    50350.60027   X       28     0       0       0         2.39833160
       8  e       30    51780.14592   X       29     0       0       0         2.37859267
       8  e       31    53185.36017   X       30     0       0       0         2.16628843
       8  e       32    54566.29727   X       31     0       0       0         2.24171540
       8  e       33    55923.00592   X       32     0       0       0         2.14216164
       8  e       34      57255.528   X       33     0       0       0         2.12962963
       8  e       35    58563.89837   X       34     0       0       0         2.21811460
       8  e       36    59848.14395   X       35     0       0       0         1.67844523
       8  e       37    61108.28278   X       36     0       0       0         1.67696381
       8  e       38    62344.32339   X       37     0       0       0         1.48992112
       8  e       39    63556.26369   X       38     0       0       0         1.17746005
       8  e       40    64744.09022   X       39     0       0       0         0.48115477
       8  e       41    65907.77686   X       40     0       0       0         0.51169591
       8  e       42    67047.28405   X       41     0       0       0         0.07062147
       9  e        1    172.9780295   X        0     0       0       0   2045454.54545455
       9  e        2    2314.673875   X        1     0       0       0       499.50049950
       9  e        3    4429.889792   X        2     0       0       0      1811.71142025
       9  e        4    6518.691649   X        3     0       0       0     17628.20512821
       9  e        5    8581.146999   X        4     0       0       0      4154.92957746
       9  e        6    10617.32511   X        5     0       0       0        54.94505495
       9  e        7    12627.29701   X        6     0       0       0        14.45001474
       9  e        8    14611.13537   X        7     0       0       0        12.33396584
       9  e        9    16568.91446   X        8     0       0       0        14.30113330
       9  e       10    18500.71038   X        9     0       0       0         9.54158888
       9  e       11    20406.60068   X       10     0       0       0        11.32947977
       9  e       12    22286.66396   X       11     0       0       0         8.64792949
       9  e       13    24140.98097   X       12     0       0       0         7.77654341
       9  e       14    25969.63303   X       13     0       0       0         6.78488820
       9  e       15    27772.70274   X       14     0       0       0         6.64599025
       9  e       16     29550.2737   X       15     0       0       0         6.63068620
       9  e       17    31302.42996   X       16     0       0       0         4.64774951
       9  e       18    33029.25626   X       17     0       0       0         5.51724138
       9  e       19    34730.83752   X       18     0       0       0         3.87940590
       9  e       20    36407.25806   X       19     0       0       0         4.40695039
       9  e       21    38058.60294   X       20     0       0       0         4.10653526
       9  e       22    39684.95555   X       21     0       0       0         4.23464940
       9  e       23      41286.399   X       22     0       0       0         3.44076156
       9  e       24    42863.01459   X       23     0       0       0         3.44906875
       9  e       25    44414.88207   X       24     0       0       0         2.38690612
       9  e       26    45942.07901   X       25     0       0       0         2.46781116
       9  e       27     47444.6803   X       26     0       0       0         2.35188711
       9  e       28     48922.7577   X       27     0       0       0         2.31432779
       9  e       29    50376.37971   X       28     0       0       0         2.19123506
       9  e       30    51805.61029   X       29     0       0       0         2.38539722
       9  e       31    53210.50914   X       30     0       0       0         2.25933202
       9  e       32    54591.13052   X       31     0       0       0         2.25048924
       9  e       33    55947.52292   X       32     0       0       0         2.13385063
       9  e       34    57279.72821   X       33     0       0       0         2.04271123
       9  e       35    58587.78123   X       34     0       0       0         1.93548387
       9  e       36    59871.70857   X       35     0       0       0         1.92131747
       9  e       37    61131.52827   X       36     0       0       0         1.49516271
       9  e       38    62367.24879   X       37     0       0       0         1.27226463
       9  e       39    63578.86786   X       38     0       0       0         1.18043845
       9  e       40    64766.37179   X       39     0       0       0         0.65735415
       9  e       41    65929.73438   X       40     0       0       0         0.28632785
       9  e       42    67068.91543   X       41     0       0       0         0.13513514
      10  e        1    211.4041275   X        0     0       0       0   1429727.54248719
      10  e        2    2352.749916   X        1     0       0       0      6809.20604657
      10  e        3    4467.615801   X        2     0       0       0      1790.12345679
      10  e        4    6556.067652   X        3     0       0       0     17931.47614473
      10  e        5    8618.173028   X        4     0       0       0      2692.48937175
      10  e        6    10654.00119   X        5     0       0       0        54.94505495
      10  e        7    12663.62313   X        6     0       0       0        14.63997610
      10  e        8    14647.11166   X        7     0       0       0        17.10409909
      10  e        9    16604.54098   X        8     0       0       0        10.81916538
      10  e       10    18535.98697   X        9     0       0       0        12.01696513
      10  e       11    20441.52755   X       10     0       0       0         9.47493091
      10  e       12    22321.24135   X       11     0       0       0         9.25240563
      10  e       13    24175.20869   X       12     0       0       0         8.72196511
      10  e       14    26003.51126   X       13     0       0       0         9.08173562
      10  e       15    27806.23159   X       14     0       0       0         8.89996440
      10  e       16    29583.45313   X       15     0       0       0         5.99440522
      10  e       17    31335.26004   X       16     0       0       0         6.47548566
      10  e       18    33061.73718   X       17     0       0       0         4.34221336
      10  e       19     34762.9691   X       18     0       0       0         4.96483244
      10  e       20    36439.04073   X       19     0       0       0         4.10749912
      10  e       21    38090.03627   X       20     0       0       0         4.25745054
      10  e       22    39716.03996   X       21     0       0       0         3.74181478
      10  e       23    41317.13426   X       22     0       0       0         3.58050358
      10  e       24    42893.40074   X       23     0       0       0         2.16919740
      10  e       25    44444.91908   X       24     0       0       0         2.69338505
      10  e       26    45971.76678   X       25     0       0       0         2.59242561
      10  e       27    47474.01862   X       26     0       0       0         2.64019432
      10  e       28    48951.74654   X       27     0       0       0         2.42156243
      10  e       29    50405.01866   X       28     0       0       0         2.29405631
      10  e       30    51833.89924   X       29     0       0       0         2.36920039
      10  e       31    53238.44769   X       30     0       0       0         1.76991150
      10  e       32    54618.71822   X       31     0       0       0         2.04678363
      10  e       33    55974.75925   X       32     0       0       0         1.86567164
      10  e       34    57306.61252   X       33     0       0       0         2.12962963
      10  e       35    58614.31277   X       34     0       0       0         1.83823529
      10  e       36    59897.88658   X       35     0       0       0         1.50176678
      10  e       37    61157.35177   X       36     0       0       0         1.49122807
      10  e       38     62392.7166   X       37     0       0       0         1.04529617
      10  e       39    63603.97858   X       38     0       0       0         1.09335576
      10  e       40    64791.12411   X       39     0       0       0         0.79113924
      10  e       41     65954.1265   X       40     0       0       0         0.35637919
      10  e       42    67092.94567   X       41     0       0       0         0.05627462
      11  e        1    253.6671815   X        0     0       0       0   1563763.81774063
      11  e        2    2394.627909   X        1     0       0       0      6727.00587084
      11  e        3    4509.108759   X        2     0       0       0      1729.98643148
      11  e        4    6597.175602   X        3     0       0       0     15633.42318059
      11  e        5    8658.896003   X        4     0       0       0      2554.90811295
      11  e        6    10694.33924   X        5     0       0       0        16.66666667
      11  e        7    12703.57622   X        6     0       0       0        54.00000000
      11  e        8    14686.67994   X        7     0       0       0        16.11374408
      11  e        9     16643.7245   X        8     0       0       0        12.34256927
      11  e       10    18574.78586   X        9     0       0       0        13.86748844
      11  e       11    20479.94161   X       10     0       0       0        10.03411599
      11  e       12    22359.27069   X       11     0       0       0        10.84384858
      11  e       13    24212.85361   X       12     0       0       0        10.23069208
      11  e       14    26040.77168   X       13     0       0       0        11.54684096
      11  e       15    27843.10763   X       14     0       0       0         6.79367892
      11  e       16    29619.94484   X       15     0       0       0         8.00854245
      11  e       17    31371.36764   X       16     0       0       0         4.89236791
      11  e       18    33097.46042   X       17     0       0       0         6.47448744
      11  e       19    34798.30828   X       18     0       0       0         4.82172313
      11  e       20    36473.99566   X       19     0       0       0         4.79517742
      11  e       21    38124.60742   X       20     0       0       0         3.85423966
      11  e       22    39750.22702   X       21     0       0       0         3.73645535
      11  e       23    41350.93734   X       22     0       0       0         2.86336044
      11  e       24    42926.81983   X       23     0       0       0         2.38095238
      11  e       25    44477.95407   X       24     0       0       0         3.06261343
      11  e       26    46004.41754   X       25     0       0       0         2.43850721
      11  e       27     47506.2851   X       26     0       0       0         2.32902816
      11  e       28    48983.62845   X       27     0       0       0         2.20171944
      11  e       29    50436.51583   X       28     0       0       0         2.09163347
      11  e       30    51865.01134   X       29     0       0       0         1.67984190
      11  e       31    53269.17427   X       30     0       0       0         1.86092067
      11  e       32    54649.05885   X       31     0       0       0         1.77902622
      11  e       33    56004.71329   X       32     0       0       0         1.67286245
      11  e       34    57336.17942   X       33     0       0       0         1.47601476
      11  e       35    58643.49168   X       34     0       0       0         1.59574468
      11  e       36    59926.67651   X       35     0       0       0         1.32042254
      11  e       37    61185.75162   X       36     0       0       0         1.31233596
      11  e       38    62420.72515   X       37     0       0       0         1.26582278
      11  e       39     63631.5945   X       38     0       0       0         0.92050209
      11  e       40    64818.34555   X       39     0       0       0         0.63846768
      11  e       41    65980.95164   X       40     0       0       0         0.28449502
      11  e       42    67119.37231   X       41     0       0       0         0.12217471
      12  e        1     299.765576   X        0     0       0       0   1351992.40986717
      12  e        2    2440.306237   X        1     0       0       0      6825.51501613
      12  e        3    4554.367048   X        2     0       0       0      1723.09552600
      12  e        4    6642.013885   X        3     0       0       0     12811.38790036
      12  e        5    8703.314311   X        4     0       0       0      3883.49514563
      12  e        6    10738.33761   X        5     0       0       0        16.35802469
      12  e        7    12747.15481   X        6     0       0       0        18.91161714
      12  e        8    14729.83852   X        7     0       0       0        25.29437418
      12  e        9    16686.46333   X        8     0       0       0        13.61417930
      12  e       10    18617.10497   X        9     0       0       0        11.88589540
      12  e       11    20521.84109   X       10     0       0       0        11.40684411
      12  e       12    22400.75068   X       11     0       0       0         9.83146067
      12  e       13    24253.91399   X       12     0       0       0        12.20309436
      12  e       14    26081.41268   X       13     0       0       0         7.90447360
      12  e       15    27883.32924   X       14     0       0       0         8.72196511
      12  e       16    29659.74723   X       15     0       0       0         6.20200827
      12  e       17    31410.75079   X       16     0       0       0         6.47548566
      12  e       18    33136.42461   X       17     0       0       0         4.59359449
      12  e       19    34836.85328   X       18     0       0       0         4.27527238
      12  e       20    36512.12184   X       19     0       0       0         4.22485624
      12  e       21    38162.31447   X       20     0       0       0         4.13223140
      12  e       22    39787.51527   X       21     0       0       0         2.95987722
      12  e       23    41387.80666   X       22     0       0       0         2.19450219
      12  e       24     42963.2701   X       23     0       0       0         3.08254367
      12  e       25    44513.98533   X       24     0       0       0         2.55129159
      12  e       26    46040.02967   X       25     0       0       0         2.12947189
      12  e       27    47541.47794   X       26     0       0       0         2.21402214
      12  e       28    49018.40184   X       27     0       0       0         1.70238334
      12  e       29    50470.86948   X       28     0       0       0         1.88679245
      12  e       30    51898.94483   X       29     0       0       0         1.67322835
      12  e       31    53302.68722   X       30     0       0       0         1.78739417
      12  e       32    54682.15074   X       31     0       0       0         1.49393091
      12  e       33    56037.38353   X       32     0       0       0         1.39017609
      12  e       34    57368.42722   X       33     0       0       0         1.69189671
      12  e       35    58675.31606   X       34     0       0       0         1.32625995
      12  e       36    59958.07659   X       35     0       0       0         1.40474100
      12  e       37    61216.72621   X       36     0       0       0         1.35478408
      12  e       38    62451.27282   X       37     0       0       0         1.17845118
      12  e       39    63661.71372   X       38     0       0       0         0.91135046
      12  e       40     64848.0346   X       39     0       0       0         0.53070508
      12  e       41    66010.20862   X       40     0       0       0         0.28348689
      12  e       42    67148.19494   X       41     0       0       0         0.04050223
      13  e        1    349.6975495   X        0     0       0       0   1116279.06976744
      13  e        2    2489.783139   X        1     0       0       0      6858.38045963
      13  e        3    4603.388909   X        2     0       0       0      2359.88200590
      13  e        4    6690.580738   X        3     0       0       0     12856.22455539
      13  e        5    8751.426192   X        4     0       0       0      2462.04349610
      13  e        6    10785.99458   X        5     0       0       0        15.74074074
      13  e        7    12794.35683   X        6     0       0       0        27.63561924
      13  e        8    14776.58586   X        7     0       0       0        13.87818042
      13  e        9    16732.75579   X        8     0       0       0        13.73844122
      13  e       10    18662.94275   X        9     0       0       0        10.00800641
      13  e       11    20567.22427   X       10     0       0       0        10.63616295
      13  e       12    22445.67925   X       11     0       0       0        10.24411508
      13  e       13    24298.38815   X       12     0       0       0         6.89655172
      13  e       14    26125.43242   X       13     0       0       0         8.90154887
      13  e       15    27926.89471   X       14     0       0       0         7.08905627
      13  e       16    29702.85851   X       15     0       0       0         7.09329221
      13  e       17    31453.40788   X       16     0       0       0         5.04484305
      13  e       18    33178.62762   X       17     0       0       0         5.24137931
      13  e       19    34878.60246   X       18     0       0       0         3.30188679
      13  e       20    36553.41697   X       19     0       0       0         3.90329892
      13  e       21    38203.15592   X       20     0       0       0         2.63244488
      13  e       22     39827.9027   X       21     0       0       0         2.66883268
      13  e       23    41427.74023   X       22     0       0       0         2.74882602
      13  e       24    43002.74991   X       23     0       0       0         2.70416441
      13  e       25    44553.01116   X       24     0       0       0         1.71324553
      13  e       26    46078.60142   X       25     0       0       0         1.90839695
      13  e       27    47579.59553   X       26     0       0       0         1.81451613
      13  e       28    49056.06489   X       27     0       0       0         1.69660679
      13  e       29    50508.07776   X       28     0       0       0         1.78041543
      13  e       30    51935.69796   X       29     0       0       0         1.79584121
      13  e       31    53338.98478   X       30     0       0       0         1.40712946
      13  e       32    54717.99214   X       31     0       0       0         1.48837209
      13  e       33    56072.76798   X       32     0       0       0         1.69794459
      13  e       34      57403.354   X       33     0       0       0         1.41969831
      13  e       35    58709.78427   X       34     0       0       0         1.40969163
      13  e       36    59992.08502   X       35     0       0       0         1.35938828
      13  e       37    61250.27359   X       36     0       0       0         1.26689189
      13  e       38     62484.3577   X       37     0       0       0         1.09060403
      13  e       39    63694.33431   X       38     0       0       0         0.79554495
      13  e       40    64880.18909   X       39     0       0       0         0.43636364
      13  e       41    66041.89442   X       40     0       0       0         0.05344735
      14  e        1    403.4611939   X        0     0       0       0   1116071.42857143
      14  e        2    2543.056707   X        1     0       0       0      6244.24198997
      14  e        3    4656.172435   X        2     0       0       0       499.54586739
      14  e        4    6742.874253   X        3     0       0       0      9938.97122929
      14  e        5     8803.22974   X        4     0       0       0      3299.62746142
      14  e        6    10837.30821   X        5     0       0       0        32.32876712
      14  e        7    12845.18063   X        6     0       0       0        13.68061037
      14  e        8    14826.91977   X        7     0       0       0        14.79915433
      14  e        9    16782.59998   X        8     0       0       0        10.21021021
      14  e       10    18712.29728   X        9     0       0       0        10.63829787
      14  e       11    20616.08913   X       10     0       0       0         9.81247274
      14  e       12    22494.05465   X       11     0       0       0         8.41184388
      14  e       13    24346.27409   X       12     0       0       0         8.72507123
      14  e       14    26172.82904   X       13     0       0       0         6.64599025
      14  e       15     27973.8021   X       14     0       0       0         6.16808019
      14  e       16    29749.27668   X       15     0       0       0         6.02662929
      14  e       17     31499.3371   X       16     0       0       0         5.10344828
      14  e       18    33224.06777   X       17     0       0       0         3.44519587
      14  e       19    34923.55365   X       18     0       0       0         3.65193301
      14  e       20    36597.87941   X       19     0       0       0         3.75542777
      14  e       21    38247.12952   X       20     0       0       0         3.14758685
      14  e       22    39871.38766   X       21     0       0       0         2.46966606
      14  e       23    41470.73638   X       22     0       0       0         2.49809927
      14  e       24    43045.25722   X       23     0       0       0         1.93278213
      14  e       25    44595.02956   X       24     0       0       0         1.90597205
      14  e       26    46120.13087   X       25     0       0       0         1.82094082
      14  e       27    47620.63566   X       26     0       0       0         1.70460243
      14  e       28    49096.61571   X       27     0       0       0         1.55793574
      14  e       29    50548.13874   X       28     0       0       0         1.61596958
      14  e       30    51975.26883   X       29     0       0       0         1.69491525
      14  e       31    53378.06492   X       30     0       0       0         1.86915888
      14  e       32     54756.5809   X       31     0       0       0         1.52466368
      14  e       33    56110.86482   X       32     0       0       0         1.51515152
      14  e       34    57440.95787   X       33     0       0       0         1.41592920
      14  e       35    58746.89422   X       34     0       0       0         1.19453925
      14  e       36    60028.69979   X       35     0       0       0         1.35593220
      14  e       37     61286.3918   X       36     0       0       0         1.01095198
      14  e       38    62519.97783   X       37     0       0       0         0.97244733
      14  e       39    63729.45439   X       38     0       0       0         0.46656299
      14  e       40     64914.8072   X       39     0       0       0         0.20547945
      14  e       41    66076.00837   X       40     0       0       0         0.02651816
      15  e        1    461.0544537   X        0     0       0       0    851813.77588486
      15  e        2    2600.124889   X        1     0       0       0       578.26520439
      15  e        3    4712.715567   X        2     0       0       0       799.22833127
      15  e        4    6798.892377   X        3     0       0       0      8872.20610817
      15  e        5    8858.722894   X        4     0       0       0       904.63048145
      15  e        6    10892.27639   X        5     0       0       0        16.97530864
      15  e        7    12899.62398   X        6     0       0       0        11.83113740
      15  e        8    14880.83834   X        7     0       0       0         9.41129355
      15  e        9     16835.9938   X        8     0       0       0        11.81281236
      15  e       10    18765.16641   X        9     0       0       0        11.12322792
      15  e       11    20668.43381   X       10     0       0       0         8.96286812
      15  e       12    22545.87474   X       11     0       0       0         8.01424755
      15  e       13    24397.56981   X       12     0       0       0         6.79468242
      15  e       14    26223.60047   X       13     0       0       0         6.47748304
      15  e       15    28024.04927   X       14     0       0       0         5.74632095
      15  e       16    29798.99982   X       15     0       0       0         4.82825217
      15  e       17    31548.53607   X       16     0       0       0         3.82848392
      15  e       18    33272.74297   X       17     0       0       0         4.40750535
      15  e       19      34971.705   X       18     0       0       0         3.18396226
      15  e       20    36645.50706   X       19     0       0       0         2.91477206
      15  e       21    38294.23328   X       20     0       0       0         2.41307448
      15  e       22    39917.96777   X       21     0       0       0         2.50845239
      15  e       23    41516.79291   X       22     0       0       0         2.46735890
      15  e       24    43090.78993   X       23     0       0       0         1.89853391
      15  e       25    44640.03856   X       24     0       0       0         1.82555781
      15  e       26    46164.61585   X       25     0       0       0         1.40210315
      15  e       27    47664.59647   X       26     0       0       0         1.76125245
      15  e       28    49140.05203   X       27     0       0       0         1.71591992
      15  e       29     50591.0504   X       28     0       0       0         1.78571429
      15  e       30    52017.65519   X       29     0       0       0         1.76744186
      15  e       31    53419.92552   X       30     0       0       0         1.53153153
      15  e       32    54797.91515   X       31     0       0       0         1.34168157
      15  e       33    56151.67176   X       32     0       0       0         1.59857904
      15  e       34    57481.23669   X       33     0       0       0         1.36986301
      15  e       35    58786.64375   X       34     0       0       0         1.27551020
      15  e       36    60067.91881   X       35     0       0       0         1.18143460
      15  e       37    61325.07878   X       36     0       0       0         1.13913751
      15  e       38    62558.13088   X       37     0       0       0         0.79808460
      15  e       39    63767.07193   X       38     0       0       0         0.49857550
      16  e        1    522.4751286   X        0     0       0       0    865603.64464693
      16  e        2    2660.985479   X        1     0       0       0       538.38484546
      16  e        3    4773.016108   X        2     0       0       0       745.85635359
      16  e        4    6858.632907   X        3     0       0       0      7794.65125655
      16  e        5    8917.903458   X        4     0       0       0      2324.64929860
      16  e        6    10950.89706   X        5     0       0       0        16.35802469
      16  e        7    12957.68485   X        6     0       0       0        10.69402008
      16  e        8    14938.33934   X        7     0       0       0        10.45216996
      16  e        9    16892.93507   X        8     0       0       0         9.81675393
      16  e       10    18821.54813   X        9     0       0       0         8.04976217
      16  e       11    20724.25583   X       10     0       0       0         7.83615316
      16  e       12    22601.13739   X       11     0       0       0         6.92368214
      16  e       13    24452.27313   X       12     0       0       0         6.01573346
      16  e       14    26277.74442   X       13     0       0       0         5.88730025
      16  e       15    28077.63415   X       14     0       0       0         5.65673289
      16  e       16    29852.02544   X       15     0       0       0         3.70086779
      16  e       17    31601.00308   X       16     0       0       0         4.03022670
      16  e       18    33324.65095   X       17     0       0       0         3.28599930
      16  e       19    35023.05435   X       18     0       0       0         2.21548507
      16  e       20    36696.29746   X       19     0       0       0         2.62151830
      16  e       21    38344.46526   X       20     0       0       0         2.39938925
      16  e       22    39967.64103   X       21     0       0       0         1.86046512
      16  e       23    41565.90757   X       22     0       0       0         1.64524422
      16  e       24    43139.34596   X       23     0       0       0         1.36585366
      16  e       25    44688.03572   X       24     0       0       0         1.69660679
      16  e       26    46212.05414   X       25     0       0       0         1.11940299
      16  e       27    47711.47567   X       26     0       0       0         1.42857143
      16  e       28    49186.37181   X       27     0       0       0         1.59027128
      16  e       29     50636.8104   X       28     0       0       0         1.45719490
      16  e       30    52062.85491   X       29     0       0       0         1.16906475
      16  e       31    53464.56444   X       30     0       0       0         1.51515152
      16  e       32    54841.99243   X       31     0       0       0         1.50442478
      16  e       33    56195.18669   X       32     0       0       0         1.01867572
      16  e       34    57524.18814   X       33     0       0       0         1.10732538
      16  e       35    58829.03064   X       34     0       0       0         1.16959064
      16  e       36    60109.73973   X       35     0       0       0         1.21359223
      16  e       37    61366.33204   X       36     0       0       0         1.03916867
      16  e       38     62598.8148   X       37     0       0       0         0.54263566
      16  e       39    63807.18452   X       38     0       0       0         0.41666667
      17  e        1    587.7208706   X        0     0       0       0    769434.86335898
      17  e        2    2725.636133   X        1     0       0       0       538.38484546
      17  e        3    4837.071712   X        2     0       0       0       772.65973254
      17  e        4    6922.093496   X        3     0       0       0      7881.77339901
      17  e        5    8980.769083   X        4     0       0       0      1953.76098991
      17  e        6    11013.16778   X        5     0       0       0        15.74074074
      17  e        7    13019.36067   X        6     0       0       0        11.81818182
      17  e        8     14999.4204   X        7     0       0       0        10.03709361
      17  e        9    16953.42143   X        8     0       0       0         7.86825252
      17  e       10    18881.43982   X        9     0       0       0         7.48129676
      17  e       11    20783.55305   X       10     0       0       0         5.66572238
      17  e       12    22659.84018   X       11     0       0       0         6.63375501
      17  e       13    24510.38149   X       12     0       0       0         5.74793215
      17  e       14    26335.25868   X       13     0       0       0         5.38079470
      17  e       15    28134.55425   X       14     0       0       0         4.21186981
      17  e       16    29908.35169   X       15     0       0       0         4.15617128
      17  e       17    31656.73527   X       16     0       0       0         2.91987853
      17  e       18     33379.7893   X       17     0       0       0         2.91511194
      17  e       19    35077.59893   X       18     0       0       0         2.30338927
      17  e       20    36750.24863   X       19     0       0       0         2.39000543
      17  e       21     38397.8228   X       20     0       0       0         2.05952013
      17  e       22    40020.40506   X       21     0       0       0         1.43973673
      17  e       23    41618.07797   X       22     0       0       0         1.17647059
      17  e       24    43190.92278   X       23     0       0       0         1.26829268
      17  e       25    44739.01882   X       24     0       0       0         1.20930233
      17  e       26    46262.44347   X       25     0       0       0         1.42450142
      17  e       27    47761.27089   X       26     0       0       0         0.98478066
      17  e       28    49235.57265   X       27     0       0       0         1.09190173
      17  e       29     50685.4164   X       28     0       0       0         1.25335721
      17  e       30    52110.86559   X       29     0       0       0         1.04895105
      17  e       31    53511.97911   X       30     0       0       0         0.84104289
      17  e       32    54888.81045   X       31     0       0       0         1.11111111
      17  e       33    56241.40702   X       32     0       0       0         0.92983939
      17  e       34    57569.80984   X       33     0       0       0         0.73051948
      17  e       35    58874.05235   X       34     0       0       0         0.88781275
      17  e       36    60154.15995   X       35     0       0       0         0.77821012
      17  e       37    61410.14923   X       36     0       0       0         0.61208875
      17  e       38    62642.02697   X       37     0       0       0         0.42826552
      17  e       39      63849.789   X       38     0       0       0         0.20576132
      18  e        1    656.7891856   X        0     0       0       0    608930.98782138
      18  e        2    2794.074429   X        1     0       0       0       142.68366727
      18  e        3    4904.879951   X        2     0       0       0        82.85714286
      18  e        4    6989.271651   X        3     0       0       0      6531.92013803
      18  e        5    9047.317271   X        4     0       0       0       385.16405136
      18  e        6    11079.08605   X        5     0       0       0        13.27160494
      18  e        7    13084.64909   X        6     0       0       0        10.47577477
      18  e        8    15064.07907   X        7     0       0       0         8.94610517
      18  e        9    17017.45043   X        8     0       0       0         7.48262961
      18  e       10    18944.83912   X        9     0       0       0         6.92586180
      18  e       11    20846.32292   X       10     0       0       0         7.25084850
      18  e       12    22721.98056   X       11     0       0       0         4.76657788
      18  e       13    24571.89265   X       12     0       0       0         4.69159652
      18  e       14    26396.14063   X       13     0       0       0         4.21133231
      18  e       15     28194.8071   X       14     0       0       0         3.77881345
      18  e       16    29967.97555   X       15     0       0       0         3.42021465
      18  e       17    31715.73024   X       16     0       0       0         2.91545190
      18  e       18    33438.15574   X       17     0       0       0         2.74273176
      18  e       19    35135.33667   X       18     0       0       0         1.96356496
      18  e       20     36807.3578   X       19     0       0       0         1.64795551
      18  e       21     38454.3035   X       20     0       0       0         1.33210370
      18  e       22     40076.2572   X       21     0       0       0         1.07421875
      18  e       23    41673.30151   X       22     0       0       0         1.36585366
      18  e       24    43245.51773   X       23     0       0       0         0.97864769
      18  e       25    44792.98538   X       24     0       0       0         0.85227273
      18  e       26    46315.78113   X       25     0       0       0         0.89047195
      18  e       27    47813.97959   X       26     0       0       0         0.60711188
      18  e       28    49287.65175   X       27     0       0       0         0.77386071
      18  e       29    50736.86576   X       28     0       0       0         0.95902354
      18  e       30    52161.68462   X       29     0       0       0         0.85689803
      18  e       31    53562.16703   X       30     0       0       0         0.83612040
      18  e       32    54938.36655   X       31     0       0       0         0.56270096
      18  e       33    56290.33033   X       32     0       0       0         0.72815534
      18  e       34    57618.09917   X       33     0       0       0         0.63593005
      18  e       35    58921.70649   X       34     0       0       0         0.46449900
      18  e       36    60201.17722   X       35     0       0       0         0.41608877
      18  e       37    61456.52758   X       36     0       0       0         0.42164441
      18  e       38    62687.76431   X       37     0       0       0         0.26881720
      18  e       39    63894.88325   X       38     0       0       0         0.14416146
      19  e        1    729.6774329   X        0     0       0       0    547057.03576132
      19  e        2    2866.297499   X        1     0       0       0       159.25680159
      19  e        3    4976.438076   X        2     0       0       0        44.54545455
      19  e        4    7060.164731   X        3     0       0       0      5939.52483801
      19  e        5    9117.545383   X        4     0       0       0      1261.49802891
      19  e        6    11148.64923   X        5     0       0       0        12.34186979
      19  e        7    13153.54748   X        6     0       0       0        10.03928416
      19  e        8    15132.31257   X        7     0       0       0         7.48396294
      19  e        9    17085.01934   X        8     0       0       0         7.30447176
      19  e       10    19011.74344   X        9     0       0       0         7.09767011
      19  e       11    20912.56269   X       10     0       0       0         4.90745934
      19  e       12    22787.55608   X       11     0       0       0         4.83025117
      19  e       13    24636.80381   X       12     0       0       0         3.31886648
      19  e       14    26460.38764   X       13     0       0       0         3.26606789
      19  e       15    28258.39015   X       14     0       0       0         3.06639934
      19  e       16    30030.89472   X       15     0       0       0         2.79883382
      19  e       17    31777.98562   X       16     0       0       0         2.53387683
      19  e       18    33499.74736   X       17     0       0       0         2.18173885
      19  e       19    35196.26473   X       18     0       0       0         1.55054786
      19  e       20    36867.62242   X       19     0       0       0         1.74843155
      19  e       21    38513.90473   X       20     0       0       0         0.81061164
      19  e       22    40135.19471   X       21     0       0       0         0.68093385
      19  e       23    41731.57568   X       22     0       0       0         0.62111801
      19  e       24    43303.12852   X       23     0       0       0         0.65116279
      19  e       25    44849.93276   X       24     0       0       0         0.67567568
      19  e       26    46372.06467   X       25     0       0       0         0.51813472
      19  e       27    47869.59881   X       26     0       0       0         0.56772101
      19  e       28    49342.60669   X       27     0       0       0         0.41528239
      19  e       29    50791.15607   X       28     0       0       0         0.87163233
      19  e       30    52215.30915   X       29     0       0       0         0.66115702
      19  e       31    53615.12561   X       30     0       0       0         0.64829822
      19  e       32    54990.65795   X       31     0       0       0         0.39246468
      19  e       33     56341.9541   X       32     0       0       0         0.28348689
      19  e       34    57669.05349   X       33     0       0       0         0.34411562
      19  e       35    58971.98983   X       34     0       0       0         0.41522491
      19  e       36    60250.78832   X       35     0       0       0         0.11527378
      19  e       37     61505.4645   X       36     0       0       0         0.18083183
      19  e       38    62736.02533   X       37     0       0       0         0.12307692
      19  e       39    63942.46637   X       38     0       0       0         0.01885725
      20  e        1    806.3828264   X        0     0       0       0    499040.30710173
      20  e        2    2942.302792   X        1     0       0       0       487.07753479
      20  e        3     5051.74331   X        2     0       0       0        54.00000000
      20  e        4     7134.76995   X        3     0       0       0      2726.73384707
      20  e        5     9191.45064   X        4     0       0       0       950.73465860
      20  e        6    11221.85463   X        5     0       0       0        14.81481481
      20  e        7    13226.05292   X        6     0       0       0         8.72981231
      20  e        8    15204.11839   X        7     0       0       0         7.30577334
      20  e        9    17156.12542   X        8     0       0       0         5.86419753
      20  e       10       19082.15   X        9     0       0       0         5.24610400
      20  e       11    20982.26975   X       10     0       0       0         5.24427270
      20  e       12    22856.56366   X       11     0       0       0         3.82995021
      20  e       13    24705.11233   X       12     0       0       0         3.52733686
      20  e       14    26527.99682   X       13     0       0       0         2.94880868
      20  e       15    28325.30058   X       14     0       0       0         1.96399345
      20  e       16    30097.10618   X       15     0       0       0         2.96215030
      20  e       17    31843.49834   X       16     0       0       0         2.60727865
      20  e       18    33564.56146   X       17     0       0       0         1.64795551
      20  e       19    35260.38035   X       18     0       0       0         1.43457321
      20  e       20    36931.03964   X       19     0       0       0         0.95658572
      20  e       21    38576.62218   X       20     0       0       0         0.50323508
      20  e       22    40197.21549   X       21     0       0       0         0.59347181
      20  e       23     41792.8988   X       22     0       0       0         0.35688794
      20  e       24    43363.75211   X       23     0       0       0         0.25889968
      20  e       25    44909.85778   X       24     0       0       0         0.51736881
      20  e       26    46431.29098   X       25     0       0       0         0.48348106
      20  e       27    47928.12618   X       26     0       0       0         0.45420136
      20  e       28    49400.43456   X       27     0       0       0         0.42704626
      20  e       29    50848.28366   X       28     0       0       0         0.48510049
      20  e       30    52271.73658   X       29     0       0       0         0.37037037
      20  e       31    53670.85209   X       30     0       0       0         0.20435967
      20  e       32    55045.68179   X       31     0       0       0         0.14054814
      20  e       33    56396.27471   X       32     0       0       0         0.20775623
      20  e       34    57722.66908   X       33     0       0       0         0.13522650
      20  e       35     59024.8997   X       34     0       0       0         0.08561644
      20  e       36    60302.99067   X       35     0       0       0         0.11173184
      21  e        1    886.9024342   X        0     0       0       0    416289.59276018
      21  e        2    3022.087362   X        1     0       0       0        58.74265717
      21  e        3     5130.79265   X        2     0       0       0       654.45026178
      21  e        4    7213.084375   X        3     0       0       0      3083.18789994
      21  e        5      9269.0301   X        4     0       0       0       998.62933229
      21  e        6    11298.69924   X        5     0       0       0        12.95896328
      21  e        7    13302.16263   X        6     0       0       0         8.51156700
      21  e        8    15279.49339   X        7     0       0       0         6.05844619
      21  e        9    17230.76574   X        8     0       0       0         5.70987654
      21  e       10    19156.05577   X        9     0       0       0         5.65907522
      21  e       11    21055.44106   X       10     0       0       0         4.53629032
      21  e       12    22929.00066   X       11     0       0       0         3.77976565
      21  e       13    24776.81495   X       12     0       0       0         3.18508906
      21  e       14    26598.96572   X       13     0       0       0         2.91613204
      21  e       15    28395.53498   X       14     0       0       0         2.86469810
      21  e       16    30166.60701   X       15     0       0       0         1.94763038
      21  e       17    31912.26564   X       16     0       0       0         2.06739715
      21  e       18    33632.59313   X       17     0       0       0         0.64214828
      21  e       19    35327.68081   X       18     0       0       0         0.84985836
      21  e       20    36997.60753   X       19     0       0       0         0.85898354
      21  e       21    38642.45869   X       20     0       0       0         0.37140204
      21  e       22     40262.3145   X       21     0       0       0         0.40863981
      21  e       23    41857.26401   X       22     0       0       0         0.18303844
      21  e       24     43427.3862   X       23     0       0       0         0.27586207
      21  e       25    44972.75743   X       24     0       0       0         0.21291696
      21  e       26    46493.45709   X       25     0       0       0         0.13377926
      21  e       27    47989.55839   X       26     0       0       0         0.19392372
      21  e       28     49461.1325   X       27     0       0       0         0.17411492
      21  e       29    50908.24742   X       28     0       0       0         0.26333114
      21  e       30    52330.96395   X       29     0       0       0         0.25109856
      21  e       31    53729.34217   X       30     0       0       0         0.06146281
      21  e       32    55103.43526   X       31     0       0       0         0.25906736
      22  e        1    971.2331768   X        0     0       0       0    360824.74226804
      22  e        2    3105.647998   X        1     0       0       0        49.99375078
      22  e        3    5213.583326   X        2     0       0       0        30.62500000
      22  e        4    7295.104928   X        3     0       0       0      2901.02389078
      22  e        5    9350.280687   X        4     0       0       0       840.92501752
      22  e        6    11379.17988   X        5     0       0       0        12.34567901
      22  e        7    13381.87357   X        6     0       0       0         8.29332169
      22  e        8    15358.43446   X        7     0       0       0         6.05844619
      22  e        9    17308.93719   X        8     0       0       0         5.09259259
      22  e       10    19233.45768   X        9     0       0       0         4.55486542
      22  e       11    21132.07345   X       10     0       0       0         3.90625000
      22  e       12    23004.86377   X       11     0       0       0         3.38310779
      22  e       13     24851.9089   X       12     0       0       0         3.38271317
      22  e       14    26673.29036   X       13     0       0       0         2.31404959
      22  e       15    28469.09116   X       14     0       0       0         2.29132570
      22  e       16      30239.394   X       15     0       0       0         1.77736202
      22  e       17    31984.28442   X       16     0       0       0         0.93256815
      22  e       18    33703.84578   X       17     0       0       0         0.80971660
      22  e       19    35398.16365   X       18     0       0       0         0.86268871
      22  e       20    37067.31967   X       19     0       0       0         0.39908780
      22  e       21    38711.40275   X       20     0       0       0         0.35282258
      22  e       22     40330.4939   X       21     0       0       0         0.25263158
      22  e       23    41924.67733   X       22     0       0       0         0.17706950
      22  e       24    43494.02725   X       23     0       0       0         0.15625000
      22  e       25    45038.62863   X       24     0       0       0         0.17026107
      22  e       26    46558.55939   X       25     0       0       0         0.02551671
      22  e       28    49524.69422   X       27     0       0       0         0.05497526
      22  e       29    50971.04352   X       28     0       0       0         0.13556258
      22  e       30    52392.98674   X       29     0       0       0         0.11648224
      22  e       31    53790.59805   X       30     0       0       0         0.10632642
      22  e       34    57837.87524   X       33     0       0       0         0.05824112
      23  e        1    1059.371829   X        0     0       0       0    161353.79771743
      23  e        2    3192.981337   X        1     0       0       0       123.19228709
      23  e        3    5300.111786   X        2     0       0       0        22.27272727
      23  e        4    7380.828384   X        3     0       0       0      2869.51813752
      23  e        5     9435.19918   X        4     0       0       0       617.64705882
      23  e        6    11463.29351   X        5     0       0       0        10.49058932
      23  e        7    13465.18221   X        6     0       0       0         6.98384985
      23  e        8    15440.93859   X        7     0       0       0         6.94939416
      23  e        9    17390.63653   X        8     0       0       0         4.16666667
      23  e       10    19314.35248   X        9     0       0       0         4.83091787
      23  e       11    21212.16397   X       10     0       0       0         3.27620968
      23  e       12     23084.1499   X       11     0       0       0         3.14979001
      23  e       13    24930.39071   X       12     0       0       0         2.83718900
      23  e       14    26750.96851   X       13     0       0       0         2.40043644
      23  e       15    28545.96519   X       14     0       0       0         1.25335721
      23  e       16    30315.46446   X       15     0       0       0         1.71325518
      23  e       17    32059.55037   X       16     0       0       0         1.25335721
      23  e       18    33778.30863   X       17     0       0       0         0.90215128
      23  e       19    35471.82249   X       18     0       0       0         0.40792541
      23  e       20    37140.17867   X       19     0       0       0         0.64214828
      23  e       21    38783.45835   X       20     0       0       0         0.29188558
      23  e       22    40401.74016   X       21     0       0       0         0.13501350
      23  e       23    41995.12069   X       22     0       0       0         0.23094688
      23  e       24    43563.66733   X       23     0       0       0         0.14807502
      23  e       25    45107.47079   X       24     0       0       0         0.07917656
      23  e       27    48121.12274   X       26     0       0       0         0.07094714
      23  e       28    49591.12812   X       27     0       0       0         0.08233841
      23  e       29    51036.66104   X       28     0       0       0         0.10065425
      23  e       30    52457.80935   X       29     0       0       0         0.04694836
      24  e        1    1151.315023   X        0     0       0       0    165194.00691510
      24  e        2    3284.084652   X        1     0       0       0        61.21939030
      24  e        3     5390.37478   X        2     0       0       0        18.00000000
      24  e        4    7470.251371   X        3     0       0       0      2093.64293871
      24  e        5    9523.782215   X        4     0       0       0       156.96784074
      24  e        6    11551.03662   X        5     0       0       0        11.39162562
      24  e        7    13552.08565   X        6     0       0       0         8.07507639
      24  e        8    15527.00229   X        7     0       0       0         6.05844619
      24  e        9    17475.86058   X        8     0       0       0         5.40123457
      24  e       10    19398.73693   X        9     0       0       0         4.55486542
      24  e       11     21295.7089   X       10     0       0       0         3.14980471
      24  e       12    23166.85554   X       11     0       0       0         3.38310779
      24  e       13    25012.25735   X       12     0       0       0         2.61894369
      24  e       14    26831.99573   X       13     0       0       0         1.54320988
      24  e       15    28626.15372   X       14     0       0       0         2.05908684
      24  e       16    30394.81456   X       15     0       0       0         1.25335721
      24  e       17    32138.06274   X       16     0       0       0         1.08864697
      24  e       18    33855.98279   X       17     0       0       0         0.53368913
      24  e       19    35548.65911   X       18     0       0       0         0.66711141
      24  e       20     37216.1717   X       19     0       0       0         0.45610034
      24  e       21    38858.61197   X       20     0       0       0         0.22701476
      24  e       22    40476.06197   X       21     0       0       0         0.13049152
      24  e       23    42068.59902   X       22     0       0       0         0.08853475
      24  e       24    43636.31154   X       23     0       0       0         0.08210181
      24  e       25    45179.27629   X       24     0       0       0         0.04192872
      24  e       26    46697.55604   X       25     0       0       0         0.06686727
      24  e       28    49660.41194   X       27     0       0       0         0.07587253
      24  e       29    51105.11292   X       28     0       0       0         0.03806624
      24  e       30    52525.40554   X       29     0       0       0         0.13489209
      25  e        1    1247.059239   X        0     0       0       0    155361.87949981
      25  e        2    3378.953756   X        1     0       0       0        44.97751124
      25  e        3    5484.368743   X        2     0       0       0       152.42080096
      25  e        4    7563.370377   X        3     0       0       0      1740.09626064
      25  e        5    9616.026224   X        4     0       0       0       207.67494357
      25  e        6    11642.40568   X        5     0       0       0        12.30390649
      25  e        7    13642.58003   X        6     0       0       0         6.32221496
      25  e        8    15616.62172   X        7     0       0       0         5.34568781
      25  e        9    17564.60543   X        8     0       0       0         4.47530864
      25  e       10    19486.60731   X        9     0       0       0         4.41683920
      25  e       11    21382.70489   X       10     0       0       0         3.02419355
      25  e       12    23252.97733   X       11     0       0       0         2.44983668
      25  e       13    25097.50495   X       12     0       0       0         2.50982104
      25  e       14    26916.36942   X       13     0       0       0         2.14987715
      25  e       15    28709.65389   X       14     0       0       0         1.52193375
      25  e       16    30477.44052   X       15     0       0       0         0.94582975
      25  e       17     32219.8149   X       16     0       0       0         0.93312597
      25  e       18    33936.86015   X       17     0       0       0         0.60040027
      25  e       19    35628.66213   X       18     0       0       0         0.43907794
      25  e       20    37295.30638   X       19     0       0       0         0.53114437
      25  e       21    38936.87351   X       20     0       0       0         0.33296337
      25  e       22    40553.44671   X       21     0       0       0         0.08097166
      25  e       23    42145.11763   X       22     0       0       0         0.11966494
      25  e       25    45254.03234   X       24     0       0       0         0.03170577
      25  e       29    51176.37404   X       28     0       0       0         0.12300123
      25  e       31    53990.88574   X       30     0       0       0         0.04100041
      26  e        1    1346.600818   X        0     0       0       0    145522.38805970
      26  e        2    3477.585188   X        1     0       0       0        46.22688656
      26  e        3    5582.090149   X        2     0       0       0        61.40482253
      26  e        4    7660.181736   X        3     0       0       0      1476.27416520
      26  e        5    9711.927609   X        4     0       0       0        40.00000000
      26  e        6    11737.39719   X        5     0       0       0        11.39162562
      26  e        7    13736.66165   X        6     0       0       0         5.66572238
      26  e        8    15709.79373   X        7     0       0       0         4.62962963
      26  e        9    17656.86777   X        8     0       0       0         3.85802469
      26  e       10     19577.9601   X        9     0       0       0         3.42794460
      26  e       11    21473.14828   X       10     0       0       0         3.27579690
      26  e       12    23342.51152   X       11     0       0       0         2.68315446
      26  e       13    25186.13001   X       12     0       0       0         1.95185426
      26  e       14    27004.08571   X       13     0       0       0         1.61828664
      26  e       15    28796.45958   X       14     0       0       0         1.32743363
      26  e       16    30563.33943   X       15     0       0       0         1.37103685
      26  e       17    32304.80451   X       16     0       0       0         0.85536547
      26  e       18    34020.94045   X       17     0       0       0         0.51513200
      26  e       19    35711.83682   X       18     0       0       0         0.49641478
      26  e       20     37377.5703   X       19     0       0       0         0.20259319
      26  e       21    39018.22888   X       20     0       0       0         0.33686237
      26  e       22    40633.89095   X       21     0       0       0         0.14064698
      26  e       28    49807.55034   X       27     0       0       0         0.03343363
      26  e       30    52668.96864   X       29     0       0       0         0.11380880
      27  e        1    1449.935951   X        0     0       0       0    142335.76642336
      27  e        2    3579.975228   X        1     0       0       0        47.47626187
      27  e        3    5683.535146   X        2     0       0       0        15.00000000
      27  e        4     7760.68164   X        3     0       0       0      1536.09831029
      27  e        5    9811.482426   X        4     0       0       0        60.93432634
      27  e        6    11836.00723   X        5     0       0       0         9.31490385
      27  e        7    13834.32683   X        6     0       0       0         6.10420754
      27  e        8    15806.51411   X        7     0       0       0         6.00388487
      27  e        9    17752.64357   X        8     0       0       0         4.13223140
      27  e       10    19672.79147   X        9     0       0       0         3.58868185
      27  e       11    21567.03531   X       10     0       0       0         3.00714196
      27  e       12    23435.45408   X       11     0       0       0         3.37091712
      27  e       13    25278.12857   X       12     0       0       0         1.57170923
      27  e       14    27095.14035   X       13     0       0       0         1.84331797
      27  e       15    28886.57159   X       14     0       0       0         1.78412132
      27  e       16    30652.50497   X       15     0       0       0         0.88211708
      27  e       17    32393.02698   X       16     0       0       0         0.66711141
      27  e       18    34108.21826   X       17     0       0       0         0.65061809
      27  e       19    35798.17265   X       18     0       0       0         0.54141852
      27  e       20    37462.96206   X       19     0       0       0         0.33800097
      27  e       21    39102.67905   X       20     0       0       0         0.22539444
      27  e       23    42307.21167   X       22     0       0       0         0.06633499
      27  e       24    43872.20135   X       23     0       0       0         0.03316750
      27  e       25    45412.43389   X       24     0       0       0         0.06006006
      27  e       29    51327.36194   X       28     0       0       0         0.10642072
      27  e       31    54138.14414   X       30     0       0       0         0.03547357
      28  e        1    1557.060687   X        0     0       0       0    104895.10489511
      28  e        2    3686.119828   X        1     0       0       0        42.47345409
      28  e        3    5788.699624   X        2     0       0       0        14.99000666
      28  e        4    7864.866137   X        3     0       0       0      1489.36170213
      28  e        5    9914.687092   X        4     0       0       0        52.59697567
      28  e        6    11938.23191   X        5     0       0       0        10.32493167
      28  e        7    13935.57161   X        6     0       0       0         6.88912809
      28  e        8    15906.77905   X        7     0       0       0         4.80769231
      28  e        9    17851.92901   X        8     0       0       0         4.75168608
      28  e       10     19771.0972   X        9     0       0       0         3.70218017
      28  e       11    21664.36171   X       10     0       0       0         3.00187617
      28  e       12    23531.80146   X       11     0       0       0         2.39398085
      28  e       13     25373.4968   X       12     0       0       0         1.85931205
      28  e       14    27189.52918   X       13     0       0       0         1.77404295
      28  e       15    28979.98253   X       14     0       0       0         1.40961857
      28  e       16    30744.93811   X       15     0       0       0         1.03338633
      28  e       17    32484.48195   X       16     0       0       0         0.92378753
      28  e       18    34198.69545   X       17     0       0       0         0.42092604
      28  e       19    35887.66894   X       18     0       0       0         0.29154519
      28  e       20    37551.48309   X       19     0       0       0         0.25706941
      28  e       21    39190.22057   X       20     0       0       0         0.22779043
      28  e       22    40803.96901   X       21     0       0       0         0.17398869
      28  e       23    42392.80235   X       22     0       0       0         0.07032349
      28  e       24    43956.80059   X       23     0       0       0         0.09445844
      28  e       26    47010.63959   X       25     0       0       0         0.02876043
      28  e       30    52823.66084   X       29     0       0       0         0.03343363
      29  e        1    1667.970924   X        0     0       0       0    105442.17687075
      29  e        2    3796.014947   X        1     0       0       0        33.72470647
      29  e        3    5897.579676   X        2     0       0       0        11.69230769
      29  e        4    7972.731129   X        3     0       0       0      1528.45528455
      29  e        5    10021.53708   X        4     0       0       0        25.00000000
      29  e        6    12044.06707   X        5     0       0       0         9.01442308
      29  e        7    14040.39196   X        6     0       0       0         6.92640693
      29  e        8    16010.58461   X        7     0       0       0         3.50877193
      29  e        9    17954.71972   X        8     0       0       0         4.28527701
      29  e       10    19872.87356   X        9     0       0       0         3.29411765
      29  e       11    21765.12383   X       10     0       0       0         2.55785627
      29  e       12    23631.54908   X       11     0       0       0         1.75438596
      29  e       13    25472.23027   X       12     0       0       0         1.85728250
      29  e       14    27287.24932   X       13     0       0       0         1.84331797
      29  e       15    29076.68805   X       14     0       0       0         1.20793788
      29  e       16    30840.62977   X       15     0       0       0         0.75528701
      29  e       17    32579.16075   X       16     0       0       0         0.86830680
      29  e       18     34292.3636   X       17     0       0       0         0.41592395
      29  e       19    35980.32241   X       18     0       0       0         0.40941658
      29  e       20    37643.12424   X       19     0       0       0         0.22094565
      29  e       21    39280.85135   X       20     0       0       0         0.04145937
      29  e       22    40893.57736   X       21     0       0       0         0.10043522
      29  e       23    42481.40401   X       22     0       0       0         0.07977663
      29  e       25    45582.63411   X       24     0       0       0         0.09077156
      29  e       27    48585.17051   X       26     0       0       0         0.05563282
      30  e        1    1782.662422   X        0     0       0       0     84488.00270362
      30  e        2    3909.656226   X        1     0       0       0        37.47657714
      30  e        3    6010.170916   X        2     0       0       0        10.19184652
      30  e        4    8084.272369   X        3     0       0       0      1094.52736318
      30  e        5    10132.02832   X        4     0       0       0        20.71428571
      30  e        6    12153.50829   X        5     0       0       0         6.99105145
      30  e        7    14148.78335   X        6     0       0       0         6.53594771
      30  e        8    16117.92639   X        7     0       0       0         3.78787879
      30  e        9      18061.012   X        8     0       0       0         2.88263555
      30  e       10    19978.11635   X        9     0       0       0         2.47815312
      30  e       11     21869.3169   X       10     0       0       0         2.95663601
      30  e       12    23734.69304   X       11     0       0       0         1.50517404
      30  e       13    25574.32544   X       12     0       0       0         1.44230769
      30  e       14    27388.29504   X       13     0       0       0         0.94827586
      30  e       15    29176.68536   X       14     0       0       0         0.74626866
      30  e       16    30939.57934   X       15     0       0       0         0.79491256
      30  e       17    32677.06035   X       16     0       0       0         0.51698671
      30  e       18    34389.21563   X       17     0       0       0         0.28971511
      30  e       19    36076.12666   X       18     0       0       0         0.19704433
      30  e       20    37737.87925   X       19     0       0       0         0.18223235
      30  e       22    40986.24051   X       21     0       0       0         0.03705076
      30  e       24    44134.95584   X       23     0       0       0         0.06349206
      30  e       26    47184.67101   X       25     0       0       0         0.05792065
      30  e       28    50135.97351   X       27     0       0       0         0.02680247
      31  e        1    1901.130791   X        0     0       0       0     87306.91739422
      31  e        2    4027.039527   X        1     0       0       0        31.23048095
      31  e        3    6126.469063   X        2     0       0       0         9.89208633
      31  e        4    8199.485387   X        3     0       0       0       122.90502793
      31  e        5    10246.15648   X        4     0       0       0        26.19270346
      31  e        6    12266.55158   X        5     0       0       0         6.39549757
      31  e        7    14260.74167   X        6     0       0       0         2.78250116
      31  e        8     16228.8001   X        7     0       0       0         3.03030303
      31  e        9    18170.80108   X        8     0       0       0         2.26415094
      31  e       10    20086.82078   X        9     0       0       0         2.20213259
      31  e       11    21976.93697   X       10     0       0       0         1.44538509
      31  e       12    23841.22895   X       11     0       0       0         1.00260678
      31  e       13    25679.77719   X       12     0       0       0         1.52603232
      31  e       14      27492.663   X       13     0       0       0         0.64516129
      31  e       15    29279.96903   X       14     0       0       0         0.52671181
      31  e       16    31041.77954   X       15     0       0       0         0.29033596
      31  e       17    32778.17726   X       16     0       0       0         0.21321962
      31  e       18    34489.24909   X       17     0       0       0         0.28296548
      31  e       19     36175.0773   X       18     0       0       0         0.09541985
      31  e       20    37835.74436   X       19     0       0       0         0.03508772
      32  e        1    2023.371397   X        0     0       0       0      7397.62219287
      32  e        2    4148.160203   X        1     0       0       0         9.52380952
      32  e        3    6246.469554   X        2     0       0       0         9.92063492
      32  e        4    8318.365793   X        3     0       0       0       104.28305400
      32  e        5    10363.91716   X        4     0       0       0        27.12815716
      32  e        6    12383.19192   X        5     0       0       0         5.31208499
      32  e        7    14376.26251   X        6     0       0       0         3.58539765
      32  e        8    16343.20101   X        7     0       0       0         2.80673617
      32  e        9    18284.08208   X        8     0       0       0         1.76095091
      32  e       10    20198.98248   X        9     0       0       0         1.56512018
      32  e       11    22087.97949   X       10     0       0       0         1.66830226
      32  e       12     23951.1522   X       11     0       0       0         1.19453925
      32  e       13    25788.58123   X       12     0       0       0         1.29310345
      32  e       14    27600.34836   X       13     0       0       0         0.76013514
      32  e       15    29386.53523   X       14     0       0       0         0.28964518
      32  e       16    31147.22862   X       15     0       0       0         0.21041557
      32  e       17    32882.50872   X       16     0       0       0         0.34364261
      32  e       18    34592.45949   X       17     0       0       0         0.14778325
      32  e       19    36277.16961   X       18     0       0       0         0.09124088
      32  e       20    37936.72165   X       19     0       0       0         0.02581978
      32  e       21    39571.19884   X       20     0       0       0         0.02565418
      33  e        1    2149.379762   X        0     0       0       0      7923.93026941
      33  e        2    4273.013397   X        1     0       0       0         8.82445635
      33  e        3    6370.167729   X        2     0       0       0         6.17776006
      33  e        4    8440.908784   X        3     0       0       0        58.30274239
      33  e        5    10485.30506   X        4     0       0       0         5.29486945
      33  e        6    12503.42506   X        5     0       0       0         3.44503602
      33  e        7    14495.34048   X        6     0       0       0         3.24625135
      33  e        8    16461.12431   X        7     0       0       0         2.81401893
      33  e        9    18400.85112   X        8     0       0       0         1.80750113
      33  e       10    20314.59676   X        9     0       0       0         1.83057053
      33  e       11    22202.43915   X       10     0       0       0         1.17117117
      33  e       12    24064.45796   X       11     0       0       0         0.90991811
      33  e       13    25900.73253   X       12     0       0       0         0.74812968
      33  e       14    27711.34621   X       13     0       0       0         0.97378277
      33  e       15    29496.38083   X       14     0       0       0         0.37105751
      33  e       16    31255.91764   X       15     0       0       0         0.41928721
      33  e       17    32990.04437   X       16     0       0       0         0.15376730
      33  e       18     34698.8449   X       17     0       0       0         0.11299435
      33  e       19    36382.40204   X       18     0       0       0         0.16090105
      33  e       20    38040.79914   X       19     0       0       0         0.08965929
      34  e        1    2279.150963   X        0     0       0       0      6867.40623349
      34  e        2      4401.5945   X        1     0       0       0         7.71128933
      34  e        3    6497.558459   X        2     0       0       0         7.95821935
      34  e        4    8567.109679   X        3     0       0       0        64.76683938
      34  e        5    10610.31566   X        4     0       0       0         2.81906715
      34  e        6     12627.2458   X        5     0       0       0         3.28278881
      34  e        7    14617.97166   X        6     0       0       0         2.14081827
      34  e        8    16582.56566   X        7     0       0       0         1.99401795
      34  e        9    18521.10258   X        8     0       0       0         2.09112921
      34  e       10    20433.65861   X        9     0       0       0         1.28840436
      34  e       11    22320.31188   X       10     0       0       0         1.19156737
      34  e       12    24181.14126   X       11     0       0       0         1.09717868
      34  e       13    26016.22707   X       12     0       0       0         1.09375000
      34  e       14    27825.65149   X       13     0       0       0         0.70810386
      34  e       15    29609.49661   X       14     0       0       0         0.40183697
      34  e       16    31367.84698   X       15     0       0       0         0.18248175
      34  e       17    33100.78588   X       16     0       0       0         0.20333469
      34  e       18    34808.39656   X       17     0       0       0         0.18656716
      34  e       19    36490.76471   X       18     0       0       0         0.02808989
      35  e        1    2412.680052   X        0     0       0       0       441.05854050
      35  e        2    4533.898456   X        1     0       0       0         7.22334585
      35  e        3    6628.637751   X        2     0       0       0         3.89800227
      35  e        4    8696.963351   X        3     0       0       0        62.60794473
      35  e        5    10738.94449   X        4     0       0       0         2.50855188
      35  e        6    12754.64934   X        5     0       0       0         2.50117242
      35  e        7     14744.1504   X        6     0       0       0         2.38095238
      35  e        8    16707.51942   X        7     0       0       0         1.54952961
      35  e        9    18644.83181   X        8     0       0       0         1.03338633
      35  e       10    20556.16354   X        9     0       0       0         1.35746606
      35  e       11    22441.59227   X       10     0       0       0         1.17117117
      35  e       12    24301.19712   X       11     0       0       0         0.92127303
      35  e       13    26135.05961   X       12     0       0       0         0.94936709
      35  e       14     27943.2596   X       13     0       0       0         0.77084793
      35  e       15    29725.88104   X       14     0       0       0         0.28612303
      35  e       16    31483.00824   X       15     0       0       0         0.12755102
      35  e       17    33214.72364   X       16     0       0       0         0.10489510
      35  e       18    34921.11085   X       17     0       0       0         0.03386387
      35  e       19    36602.25606   X       18     0       0       0         0.05980861
      35  e       20     38258.2447   X       19     0       0       0         0.00865052
      36  e        1    2549.961878   X        0     0       0       0       400.96230954
      36  e        2    4669.920087   X        1     0       0       0         3.19284802
      36  e        3    6763.398958   X        2     0       0       0         2.96369474
      36  e        4    8830.464973   X        3     0       0       0         5.00500501
      36  e        5      10871.186   X        4     0       0       0         2.81976088
      36  e        6    12885.63096   X        5     0       0       0         2.81381898
      36  e        7    14873.87154   X        6     0       0       0         1.19815668
      36  e        8    16835.98125   X        7     0       0       0         1.88157167
      36  e        9    18772.03414   X        8     0       0       0         1.08968986
      36  e       10    20682.10604   X        9     0       0       0         1.17540687
      36  e       11    22566.27545   X       10     0       0       0         0.99220411
      36  e       12    24424.62149   X       11     0       0       0         0.94043887
      36  e       13    26257.22362   X       12     0       0       0         0.51480051
      36  e       14    28064.16501   X       13     0       0       0         0.59685296
      36  e       15    29845.52862   X       14     0       0       0         0.28702641
      36  e       16    31601.39738   X       15     0       0       0         0.25146689
      36  e       17    33331.85264   X       16     0       0       0         0.02474635
      36  e       18    35036.98297   X       17     0       0       0         0.15290520
      36  e       20     38371.6025   X       19     0       0       0         0.01923447
      37  e        1    2690.991229   X        0     0       0       0       290.62087186
      37  e        2    4809.654265   X        1     0       0       0         3.58311263
      37  e        3    6901.837921   X        2     0       0       0         3.58113114
      37  e        4    8967.608884   X        3     0       0       0         4.60460460
      37  e        5    11007.03493   X        4     0       0       0         1.93986421
      37  e        6    13020.18526   X        5     0       0       0         1.97457732
      37  e        7    15007.13109   X        6     0       0       0         1.83150183
      37  e        8    16967.94546   X        7     0       0       0         1.43884892
      37  e        9    18902.70382   X        8     0       0       0         1.02189781
      37  e       10     20811.4815   X        9     0       0       0         0.74196208
      37  e       11    22694.35611   X       10     0       0       0         0.56457304
      37  e       12    24551.40736   X       11     0       0       0         1.09631950
      37  e       13    26382.71618   X       12     0       0       0         0.32299742
      37  e       14    28188.36363   X       13     0       0       0         0.35038542
      37  e       15     29968.4328   X       14     0       0       0         0.23084026
      37  e       16    31723.00708   X       15     0       0       0         0.13788349
      37  e       17    33452.17271   X       16     0       0       0         0.12849341
      37  e       18    35156.00964   X       17     0       0       0         0.10920011
      37  e       19    36834.60027   X       18     0       0       0         0.10435690
      37  e       20    38488.03992   X       19     0       0       0         0.01765225
      38  e        1    2835.762654   X        0     0       0       0       277.41083223
      38  e        2    4953.095484   X        1     0       0       0         2.22139948
      38  e        3    7043.949167   X        2     0       0       0         3.03030303
      38  e        4    9108.389953   X        3     0       0       0         3.69636964
      38  e        5     11146.4858   X        4     0       0       0         2.03685742
      38  e        6    13158.30609   X        5     0       0       0         2.09798840
      38  e        7    15143.92217   X        6     0       0       0         1.15511551
      38  e        8      17103.407   X        7     0       0       0         1.45489816
      38  e        9    19036.83536   X        8     0       0       0         0.86956522
      38  e       10    20944.28287   X        9     0       0       0         1.17540687
      38  e       11    22825.82816   X       10     0       0       0         0.66181337
      38  e       12    24681.55057   X       11     0       0       0         0.25693731
      38  e       13     26511.5301   X       12     0       0       0         0.83655084
      38  e       14    28315.84864   X       13     0       0       0         0.36439355
      38  e       15    30094.59056   X       14     0       0       0         0.14689680
      38  e       16    31847.83674   X       15     0       0       0         0.12232416
      38  e       17    33575.67073   X       16     0       0       0         0.08515470
      38  e       18    35278.18013   X       17     0       0       0         0.12434718
      38  e       20    38607.55395   X       19     0       0       0         0.01923447
      39  e        1    2984.270338   X        0     0       0       0       164.41005803
      39  e        2    5100.237897   X        1     0       0       0         1.81763102
      39  e        3    7189.726821   X        2     0       0       0         2.32323232
      39  e        4    9252.802559   X        3     0       0       0         3.43234323
      39  e        5    11289.53333   X        4     0       0       0         1.61290323
      39  e        6    13299.98829   X        5     0       0       0         1.61567202
      39  e        7    15284.23962   X        6     0       0       0         1.12023898
      39  e        8    17242.35959   X        7     0       0       0         1.35790495
      39  e        9     19174.4232   X        8     0       0       0         1.09489051
      39  e       10    21080.50638   X        9     0       0       0         1.07172300
      39  e       11    22960.68736   X       10     0       0       0         0.53924506
      39  e       12    24815.04499   X       11     0       0       0         0.62646829
      39  e       13     26643.6602   X       12     0       0       0         0.48780488
      39  e       14    28446.61636   X       13     0       0       0         0.27635215
      39  e       15    30223.99172   X       14     0       0       0         0.10818608
      39  e       16    31975.87444   X       15     0       0       0         0.11837822
      39  e       17    33702.34753   X       16     0       0       0         0.13044613
      39  e       18    35403.49146   X       17     0       0       0         0.06506181
      39  e       19    37079.39308   X       18     0       0       0         0.04453351
      39  e       21    40355.80952   X       20     0       0       0         0.01993223
      40  e        1    3136.509242   X        0     0       0       0       127.33446520
      40  e        2    5251.076784   X        1     0       0       0         1.71665152
      40  e        3    7339.165154   X        2     0       0       0         1.89873418
      40  e        4    9400.840691   X        3     0       0       0         2.12560386
      40  e        5    11436.17173   X        4     0       0       0         1.52801358
      40  e        6     13445.2268   X        5     0       0       0         1.71665152
      40  e        7    15428.07819   X        6     0       0       0         1.37299771
      40  e        8    17384.79789   X        7     0       0       0         1.44312394
      40  e        9    19315.46168   X        8     0       0       0         0.80862534
      40  e       10     21220.1453   X        9     0       0       0         0.90684254
      40  e       11    23098.92696   X       10     0       0       0         0.59563203
      40  e       12    24951.88533   X       11     0       0       0         0.80291971
      40  e       13    26779.10264   X       12     0       0       0         0.29498525
      40  e       14    28580.65883   X       13     0       0       0         0.04396571
      40  e       15    30356.63656   X       14     0       0       0         0.09202454
      40  e       16     32107.1205   X       15     0       0       0         0.10098460
      40  e       17    33832.19216   X       16     0       0       0         0.02119542
      40  e       20    38855.78992   X       19     0       0       0         0.08136697
      41  e        1    3292.472851   X        0     0       0       0       112.78195489
      41  e        2      5405.6051   X        1     0       0       0         1.56250000
      41  e        3    7492.258652   X        2     0       0       0         1.86567164
      41  e        4     9552.49931   X        3     0       0       0         1.78268251
      41  e        5    11586.39465   X        4     0       0       0         1.33124511
      41  e        6      13594.015   X        5     0       0       0         1.48026316
      41  e        7    15575.43116   X        6     0       0       0         1.34428678
      41  e        8    17530.71629   X        7     0       0       0         1.27334465
      41  e        9    19459.94545   X        8     0       0       0         0.75445816
      41  e       10    21363.19411   X        9     0       0       0         0.74626866
      41  e       11    23240.54126   X       10     0       0       0         0.61919505
      41  e       12    25092.06548   X       11     0       0       0         0.43795620
      41  e       13    26917.84752   X       12     0       0       0         0.27700831
      41  e       14    28717.97046   X       13     0       0       0         0.16113439
      41  e       15    30492.51469   X       14     0       0       0         0.12239902
      41  e       16      32241.565   X       15     0       0       0         0.05228758
      42  e        1    3452.155766   X        0     0       0       0       116.53313911
      42  e        2    5563.818095   X        1     0       0       0         1.34328358
      42  e        3    7649.000937   X        2     0       0       0         1.93392425
      42  e        4    9707.771486   X        3     0       0       0         1.67516387
      42  e        5    11740.19708   X        4     0       0       0         1.28032345
      42  e        6    13746.34738   X        5     0       0       0         1.41791045
      42  e        7    15726.29325   X        6     0       0       0         1.19131044
      42  e        8    17680.10825   X        7     0       0       0         0.80116533
      42  e        9     19607.8677   X        8     0       0       0         0.87601078
      42  e       10    21509.64696   X        9     0       0       0         0.97014925
      42  e       11    23385.52516   X       10     0       0       0         0.23682652
      42  e       12    25235.57923   X       11     0       0       0         0.74123989
      42  e       13    27059.89415   X       12     0       0       0         0.14675668
      42  e       14    28858.54484   X       13     0       0       0         0.15160703
      42  e       15    30631.62397   X       14     0       0       0         0.02642008
      42  e       16     32379.2013   X       15     0       0       0         0.09205984
      43  e        1    3615.551521   X        0     0       0       0       109.63194988
      43  e        2    5725.708504   X        1     0       0       0         0.92470277
      43  e        3    7809.386573   X        2     0       0       0         1.58520476
      43  e        4     9866.65228   X        3     0       0       0         1.28032345
      43  e        5    11897.57219   X        4     0       0       0         1.29032258
      43  e        6    13902.21706   X        5     0       0       0         0.99075297
      43  e        7    15880.65842   X        6     0       0       0         0.80495356
      43  e        8    17832.96875   X        7     0       0       0         0.80862534
      43  e        9    19759.22277   X        8     0       0       0         0.76775432
      43  e       10    21659.49756   X        9     0       0       0         0.61919505
      43  e       11    23533.87043   X       10     0       0       0         0.50307434
      43  e       12    25382.42097   X       11     0       0       0         0.32407407
      43  e       13    27205.23065   X       12     0       0       0         0.20080321
      43  e       14    29002.38137   X       13     0       0       0         0.16433854
      43  e       15    30773.94918   X       14     0       0       0         0.15556132
      43  e       17     34240.6967   X       16     0       0       0         0.03146138
      44  e        1    3782.653809   X        0     0       0       0        60.86427267
      44  e        2    5891.270498   X        1     0       0       0         0.79260238
      44  e        3     7973.40862   X        2     0       0       0         1.47161878
      44  e        4    10029.13385   X        3     0       0       0         1.21728545
      44  e        5    12058.51386   X        4     0       0       0         0.73037127
      44  e        6    14061.61895   X        5     0       0       0         0.99071207
      44  e        7    16038.52001   X        6     0       0       0         0.84745763
      44  e        8    17989.29022   X        7     0       0       0         1.03469264
      44  e        9    19914.00461   X        8     0       0       0         0.51843318
      44  e       10    21812.73935   X        9     0       0       0         0.59459459
      44  e       11    23685.57299   X       10     0       0       0         0.41797283
      44  e       12    25532.58391   X       11     0       0       0         0.48076923
      44  e       13    27353.85541   X       12     0       0       0         0.19110019
      44  e       14    29149.46358   X       13     0       0       0         0.22920760
      44  e       16    32664.03351   X       15     0       0       0         0.07926024
      44  e       18    36076.96634   X       17     0       0       0         0.06629102
      44  e       20    39388.93514   X       19     0       0       0         0.01500600
      45  e        1    3953.456989   X        0     0       0       0        96.02194787
      45  e        2    6060.498576   X        1     0       0       0         0.97532989
      45  e        3    8141.060768   X        2     0       0       0         1.24787294
      45  e        4    10195.21083   X        3     0       0       0         0.85209982
      45  e        5    12223.01611   X        4     0       0       0         1.21561100
      45  e        6    14224.54581   X        5     0       0       0         1.07832009
      45  e        7    16199.87154   X        6     0       0       0         0.62393647
      45  e        8    18149.06698   X        7     0       0       0         0.69084629
      45  e        9    20072.20661   X        8     0       0       0         0.49861496
      45  e       10    21969.36695   X        9     0       0       0         0.65656566
      45  e       11     23840.6255   X       10     0       0       0         0.47573739
      45  e       12    25686.06367   X       11     0       0       0         0.18827327
      45  e       13    27505.75721   X       12     0       0       0         0.31185031
      45  e       14    29299.79394   X       13     0       0       0         0.09583134
      45  e       15    31068.25093   X       14     0       0       0         0.13694878
      45  e       16    32811.21669   X       15     0       0       0         0.04223865
      45  e       19    37887.98794   X       18     0       0       0         0.04719207
      46  e        1    4127.952955   X        0     0       0       0        67.11409396
      46  e        2     6233.38442   X        1     0       0       0         0.90805902
      46  e        3    8312.337353   X        2     0       0       0         1.38190955
      46  e        4    10364.87688   X        3     0       0       0         1.23922414
      46  e        5    12391.07112   X        4     0       0       0         0.90666667
      46  e        6    14390.99117   X        5     0       0       0         0.79455165
      46  e        7    16364.70691   X        6     0       0       0         0.71047957
      46  e        8    18312.29243   X        7     0       0       0         0.69370331
      46  e        9    20233.82218   X        8     0       0       0         0.64902646
      46  e       10    22129.37207   X        9     0       0       0         0.45537341
      46  e       11    23999.02127   X       10     0       0       0         0.24038462
      46  e       12    25842.84872   X       11     0       0       0         0.29585799
      46  e       13    27660.93511   X       12     0       0       0         0.12661433
      46  e       14    29453.36021   X       13     0       0       0         0.19937340
      46  e       15    31220.20989   X       14     0       0       0         0.08643042
      46  e       16    32961.56468   X       15     0       0       0         0.02402114
      46  e       17    34677.51012   X       16     0       0       0         0.02386635
      47  e        1    4306.136448   X        0     0       0       0        86.41975309
      47  e        2    6409.922987   X        1     0       0       0         1.01063830
      47  e        3    8487.229774   X        2     0       0       0         1.10642782
      47  e        4     10538.1245   X        3     0       0       0         1.28068303
      47  e        5    12562.67406   X        4     0       0       0         0.70118662
      47  e        6    14560.94857   X        5     0       0       0         0.86646279
      47  e        7    16533.01951   X        6     0       0       0         0.89520800
      47  e        8    18478.95969   X        7     0       0       0         0.49977283
      47  e        9    20398.84374   X        8     0       0       0         0.24865313
      47  e       10    22292.74922   X        9     0       0       0         0.39508341
      47  e       11    24160.75406   X       10     0       0       0         0.41977612
      47  e       12    26002.93686   X       11     0       0       0         0.18319812
      47  e       13    27819.37845   X       12     0       0       0         0.22421525
      47  e       14    29610.15908   X       13     0       0       0         0.06335797
      47  e       15    31375.36388   X       14     0       0       0         0.12373175
      47  e       16    33115.07612   X       15     0       0       0         0.01184975
      48  e        1     4488.00037   X        0     0       0       0        62.43496358
      48  e        2    6590.106152   X        1     0       0       0         0.75757576
      48  e        3    8665.733468   X        2     0       0       0         1.26364159
      48  e        4    10714.94757   X        3     0       0       0         0.80604534
      48  e        5    12737.81697   X        4     0       0       0         0.83246618
      48  e        6    14734.41123   X        5     0       0       0         0.75757576
      48  e        7    16704.80171   X        6     0       0       0         0.61193269
      48  e        8    18649.06221   X        7     0       0       0         0.54869684
      48  e        9     20567.2668   X        8     0       0       0         0.39081583
      48  e       10    22459.49144   X        9     0       0       0         0.33812342
      48  e       11    24325.81666   X       10     0       0       0         0.12661433
      48  e       12    26166.31919   X       11     0       0       0         0.28203062
      48  e       13    27981.07376   X       12     0       0       0         0.00977517
      48  e       14    29770.18246   X       13     0       0       0         0.17958695
      48  e       16    33271.74106   X       15     0       0       0         0.07462687
      49  e        1    4673.537277   X        0     0       0       0        37.75620280
      49  e        2    6773.928265   X        1     0       0       0         0.39840637
      49  e        3    8847.839501   X        2     0       0       0         0.59259259
      49  e        4    10895.33944   X        3     0       0       0         0.64902646
      49  e        5    12916.49272   X        4     0       0       0         0.59331176
      49  e        6    14911.37219   X        5     0       0       0         0.54520672
      49  e        7    16880.04786   X        6     0       0       0         0.56555270
      49  e        8    18822.59259   X        7     0       0       0         0.48287972
      49  e        9    20739.08134   X        8     0       0       0         0.15879317
      49  e       10    22629.59274   X        9     0       0       0         0.35118525
      49  e       11    24494.20151   X       10     0       0       0         0.37369208
      49  e       12    26332.98835   X       11     0       0       0         0.13518080
      49  e       13    28146.03581   X       12     0       0       0         0.11471179
      49  e       15    31695.23466   X       14     0       0       0         0.12840267
      50  e        1    4862.739941   X        0     0       0       0        19.54079140
      50  e        2     6961.38203   X        1     0       0       0         0.42816365
      50  e        3    9033.545287   X        2     0       0       0         0.37273695
      50  e        4    11079.28815   X        3     0       0       0         0.33098883
      50  e        5      13098.696   X        4     0       0       0         0.54421769
      50  e        6    15091.82399   X        5     0       0       0         0.59442158
      50  e        7     17058.7494   X        6     0       0       0         0.28135048
      50  e        8    18999.54425   X        7     0       0       0         0.38927336
      50  e        9    20914.28312   X        8     0       0       0         0.29207740
      50  e       10    22803.04309   X        9     0       0       0         0.28001400
      50  e       11    24665.90319   X       10     0       0       0         0.14784151
      50  e       12    26502.94017   X       11     0       0       0         0.23049062
      50  e       13    28314.23895   X       12     0       0       0         0.08017103
      50  e       14    30099.87546   X       13     0       0       0         0.07462687
      50  e       16    33594.50542   X       15     0       0       0         0.04569340
      51  e        1    5055.607256   X        0     0       0       0         7.48923423
      51  e        2    7152.456755   X        1     0       0       0         0.37515632
      51  e        3    9222.835919   X        2     0       0       0         0.72498792
      51  e        4    11266.79825   X        3     0       0       0         0.57067603
      51  e        5    13284.41689   X        4     0       0       0         0.54495913
      51  e        6    15275.76026   X        5     0       0       0         0.58357649
      51  e        7    17240.89928   X        6     0       0       0         0.26276276
      51  e        8    19179.90823   X        7     0       0       0         0.27450980
      51  e        9    21092.86254   X        8     0       0       0         0.22042616
      51  e       10    22979.83799   X        9     0       0       0         0.30864198
      51  e       11    24840.91117   X       10     0       0       0         0.32071841
      51  e       12     26676.1656   X       11     0       0       0         0.24958403
      51  e       13     28485.6771   X       12     0       0       0         0.14801658
      51  e       14     30269.5307   X       13     0       0       0         0.09267841
      51  e       15    32027.80894   X       14     0       0       0         0.02468526
      51  e       16    33760.59257   X       15     0       0       0         0.05059449
      51  e       19    38806.82989   X       18     0       0       0         0.00906618
      52  e        1    5252.117404   X        0     0       0       0        18.39926403
      52  e        2    7347.152648   X        1     0       0       0         0.39164491
      52  e        3    9415.707634   X        2     0       0       0         0.64308682
      52  e        4      11457.851   X        3     0       0       0         0.74472487
      52  e        5    13473.64874   X        4     0       0       0         0.46171604
      52  e        6    15463.17107   X        5     0       0       0         0.60753341
      52  e        7    17426.49032   X        6     0       0       0         0.34000756
      52  e        8    19363.67926   X        7     0       0       0         0.28119508
      52  e        9    21274.81317   X        8     0       0       0         0.19461563
      52  e       10    23159.96772   X        9     0       0       0         0.31034483
      52  e       11    25019.22246   X       10     0       0       0         0.16034206
      52  e       12    26852.65426   X       11     0       0       0         0.18593121
      52  e       13    28660.34885   X       12     0       0       0         0.14548982
      52  e       14    30442.38124   X       13     0       0       0         0.12735609
      52  e       15    32198.83847   X       14     0       0       0         0.13071895
      52  e       16    33929.80483   X       15     0       0       0         0.05573101
      52  e       17    35635.35997   X       16     0       0       0         0.04514673
      52  e       18    37315.59663   X       17     0       0       0         0.00828500
      53  e        1    5452.274462   X        0     0       0       0        19.95211492
      53  e        2    7545.453994   X        1     0       0       0         0.27910686
      53  e        3     9612.15495   X        2     0       0       0         0.72629969
      53  e        4    11652.44183   X        3     0       0       0         0.58700210
      53  e        5    13666.38411   X        4     0       0       0         0.58388478
      53  e        6    15654.05148   X        5     0       0       0         0.52000000
      53  e        7      17615.515   X        6     0       0       0         0.45045045
      53  e        8    19550.84817   X        7     0       0       0         0.31372549
      53  e        9    21460.12672   X        8     0       0       0         0.36737693
      53  e       10    23343.42579   X        9     0       0       0         0.20576132
      53  e       11    25200.82441   X       10     0       0       0         0.32594524
      53  e       12    27032.40181   X       11     0       0       0         0.12026458
      53  e       13     28838.2401   X       12     0       0       0         0.12342631
      53  e       14    30618.41897   X       13     0       0       0         0.10837171
      53  e       15    32373.02273   X       14     0       0       0         0.03781433
      53  e       16     34102.1345   X       15     0       0       0         0.06950880
      53  e       17    35805.83568   X       16     0       0       0         0.03483107
      53  e       19    39137.35143   X       18     0       0       0         0.01710864
      54  e        1    5656.068175   X        0     0       0       0        25.39912917
      54  e        2    7747.357251   X        1     0       0       0         0.30441400
      54  e        3     9812.16651   X        2     0       0       0         0.50270688
      54  e        4    11850.56405   X        3     0       0       0         0.81395349
      54  e        5    13862.61565   X        4     0       0       0         0.55699963
      54  e        6    15848.39226   X        5     0       0       0         0.64803564
      54  e        7    17807.96516   X        6     0       0       0         0.52890064
      54  e        8    19741.40848   X        7     0       0       0         0.31007752
      54  e        9    21648.79608   X        8     0       0       0         0.32858708
      54  e       10      23530.205   X        9     0       0       0         0.31034483
      54  e       11    25385.71266   X       10     0       0       0         0.28373266
      54  e       12    27215.40135   X       11     0       0       0         0.21128886
      54  e       13    29019.34789   X       12     0       0       0         0.19701661
      54  e       14    30797.63726   X       13     0       0       0         0.02501876
      54  e       15    32550.35101   X       14     0       0       0         0.07146260
      54  e       16    34277.57203   X       15     0       0       0         0.08169935
      54  e       17     35979.3859   X       16     0       0       0         0.03399048
      54  e       18    37655.86967   X       17     0       0       0         0.01857700
      55  e        1    5863.489665   X        0     0       0       0        30.73376873
      55  e        2    7952.853459   X        1     0       0       0         0.37622272
      55  e        3    10015.73857   X        2     0       0       0         0.36140224
      55  e        4    12052.20944   X        3     0       0       0         0.70588235
      55  e        5    14062.33527   X        4     0       0       0         0.67567568
      55  e        6    16046.18641   X        5     0       0       0         0.41384500
      55  e        7     18003.8337   X        6     0       0       0         0.36140224
      55  e        8    19935.35118   X        7     0       0       0         0.27450980
      55  e        9    21840.81327   X        8     0       0       0         0.36737693
      55  e       10    23720.29596   X        9     0       0       0         0.18039687
      55  e       11    25573.88018   X       10     0       0       0         0.17341040
      55  e       12     27401.6419   X       11     0       0       0         0.23460411
      55  e       13    29203.66456   X       12     0       0       0         0.20671835
      55  e       14    30980.02872   X       13     0       0       0         0.09808730
      55  e       15    32730.81663   X       14     0       0       0         0.08950548
      55  e       17    36156.00007   X       16     0       0       0         0.05672150
      56  e        1    6074.529876   X        0     0       0       0        14.37297880
      56  e        2    8161.935682   X        1     0       0       0         0.38051750
      56  e        3    10222.85913   X        2     0       0       0         0.66079295
      56  e        4     12257.3699   X        3     0       0       0         0.58543725
      56  e        5    14265.53582   X        4     0       0       0         0.45774648
      56  e        6    16247.42587   X        5     0       0       0         0.45662100
      56  e        7    18203.11219   X        6     0       0       0         0.43811610
      56  e        8    20132.66907   X        7     0       0       0         0.32938076
      56  e        9    22036.17045   X        8     0       0       0         0.24647887
      56  e       10    23913.69428   X        9     0       0       0         0.08328706
      56  e       11    25765.31635   X       10     0       0       0         0.18404908
      56  e       12    27591.11769   X       11     0       0       0         0.12642225
      56  e       13    29391.17985   X       12     0       0       0         0.10118897
      56  e       14    31165.58301   X       13     0       0       0         0.09182736
      56  e       16    34637.74759   X       15     0       0       0         0.06127451
      57  e        1    6289.186952   X        0     0       0       0        25.54744526
      57  e        2     8374.59416   X        1     0       0       0         0.35625223
      57  e        3    10433.52248   X        2     0       0       0         0.65269667
      57  e        4    12466.03851   X        3     0       0       0         0.44362292
      57  e        5    14472.20783   X        4     0       0       0         0.60779407
      57  e        6     16452.1025   X        5     0       0       0         0.39187745
      57  e        7    18405.79349   X        6     0       0       0         0.37787702
      57  e        8    20333.35417   X        7     0       0       0         0.33247137
      57  e        9    22234.85929   X        8     0       0       0         0.23163468
      57  e       10    24110.38706   X        9     0       0       0         0.25781502
      57  e       11    25960.01354   X       10     0       0       0         0.13068479
      57  e       13    29581.88523   X       12     0       0       0         0.09006980
      57  e       14    31354.29939   X       13     0       0       0         0.06043513
      57  e       15    33101.12676   X       14     0       0       0         0.04022526
      57  e       17    36518.40117   X       16     0       0       0         0.03781433
      58  e        1    6507.443562   X        0     0       0       0        22.22222222
      58  e        2    8590.822234   X        1     0       0       0         0.50377834
      58  e        3    10647.72004   X        2     0       0       0         0.66573231
      58  e        4    12678.20487   X        3     0       0       0         0.40390441
      58  e        5    14682.34366   X        4     0       0       0         0.50335570
      58  e        6    16660.20721   X        5     0       0       0         0.42492918
      58  e        7     18611.8677   X        6     0       0       0         0.52283025
      58  e        8    20537.39755   X        7     0       0       0         0.34518467
      58  e        9    22436.87239   X        8     0       0       0         0.33003300
      58  e       10    24310.36854   X        9     0       0       0         0.20718232
      58  e       11    26157.96501   X       10     0       0       0         0.12191405
      58  e       12    27979.74036   X       11     0       0       0         0.06564551
      58  e       13    29775.77472   X       12     0       0       0         0.06177924
      58  e       14    31546.15328   X       13     0       0       0         0.08211866
      58  e       15    33290.96156   X       14     0       0       0         0.03737619
      58  e       16    35010.26509   X       15     0       0       0         0.03593890
      58  e       18    38372.74644   X       17     0       0       0         0.03288933
      59  e        1    6729.298478   X        0     0       0       0        27.09109380
      59  e        2    8810.610217   X        1     0       0       0         0.40187542
      59  e        3    10865.44319   X        2     0       0       0         0.39383000
      59  e        4    12893.86177   X        3     0       0       0         0.59628201
      59  e        5    14895.93485   X        4     0       0       0         0.44444444
      59  e        6    16871.73315   X        5     0       0       0         0.46113307
      59  e        7    18821.32714   X        6     0       0       0         0.39357166
      59  e        8    20744.79102   X        7     0       0       0         0.34048349
      59  e        9    22642.19981   X        8     0       0       0         0.26472535
      59  e       10    24513.63052   X        9     0       0       0         0.25600000
      59  e       11    26359.16028   X       10     0       0       0         0.08548835
      59  e       12    28178.86864   X       11     0       0       0         0.08417508
      59  e       13    29972.84089   X       12     0       0       0         0.04498426
      59  e       14    31741.15212   X       13     0       0       0         0.09039548
      59  e       15     33483.8892   X       14     0       0       0         0.03860259
      59  e       17    36892.97011   X       16     0       0       0         0.05072709
      60  e        1    6954.739052   X        0     0       0       0        22.22927914
      60  e        2    9033.951117   X        1     0       0       0         0.37555480
      60  e        3    11086.68336   X        2     0       0       0         0.59563203
      60  e        4    13113.00083   X        3     0       0       0         0.42581068
      60  e        5    15112.97375   X        4     0       0       0         0.35335689
      60  e        6    17086.67027   X        5     0       0       0         0.27369141
      60  e        7    19034.16378   X        6     0       0       0         0.19342360
      60  e        8    20955.52608   X        7     0       0       0         0.31555696
      60  e        9    22850.83366   X        8     0       0       0         0.18547141
      60  e       10    24720.16302   X        9     0       0       0         0.18343014
      60  e       11    26563.59279   X       10     0       0       0         0.11883541
      60  e       12    28381.20212   X       11     0       0       0         0.10972131
      60  e       13    30173.06982   X       12     0       0       0         0.09280742
      60  e       14    31939.28217   X       13     0       0       0         0.05900865
      60  e       15    33679.91883   X       14     0       0       0         0.06177924
      60  e       16    35395.06184   X       15     0       0       0         0.02092050
      60  e       17    37084.79902   X       16     0       0       0         0.01771165
      60  e       18    38749.20821   X       17     0       0       0         0.01601794
      61  e        1    7183.758081   X        0     0       0       0        26.35046113
      61  e        2     9260.83477   X        1     0       0       0         0.21618283
      61  e        3    11311.43117   X        2     0       0       0         0.47095761
      61  e        4     13335.6137   X        3     0       0       0         0.39933444
      61  e        5    15333.45027   X        4     0       0       0         0.42030391
      61  e        6    17305.01058   X        5     0       0       0         0.35065349
      61  e        7    19250.36708   X        6     0       0       0         0.25575448
      61  e        8     21169.5941   X        7     0       0       0         0.38722168
      61  e        9    23062.76523   X        8     0       0       0         0.17543860
      61  e       10    24929.95888   X        9     0       0       0         0.14334862
      61  e       11    26771.25097   X       10     0       0       0         0.10584811
      61  e       12    28586.72423   X       11     0       0       0         0.11927481
      61  e       13    30376.45859   X       12     0       0       0         0.12183236
      61  e       14    32140.53392   X       13     0       0       0         0.04033885
      61  e       15    33879.03364   X       14     0       0       0         0.10697475
      61  e       16    35592.04322   X       15     0       0       0         0.05681818
      62  e        1    7416.347859   X        0     0       0       0        14.50957632
      62  e        2    9491.253591   X        1     0       0       0         0.32154341
      62  e        3    11539.67832   X        2     0       0       0         0.50955414
      62  e        4    13561.69029   X        3     0       0       0         0.33835743
      62  e        5    15557.35594   X        4     0       0       0         0.39755352
      62  e        6    17526.74533   X        5     0       0       0         0.28911018
      62  e        7    19469.93072   X        6     0       0       0         0.41827542
      62  e        8    21386.98635   X        7     0       0       0         0.23873471
      62  e        9    23277.98637   X        8     0       0       0         0.14961101
      62  e       10    25143.00784   X        9     0       0       0         0.21947874
      62  e       11    26982.12947   X       10     0       0       0         0.06960557
      62  e       12    28795.43217   X       11     0       0       0         0.07535795
      62  e       13    30582.99386   X       12     0       0       0         0.09205984
      62  e       14    32344.89891   X       13     0       0       0         0.08760403
      62  e       15    34081.22829   X       14     0       0       0         0.04092490
      62  e       16    35792.06474   X       15     0       0       0         0.01966955
      63  e        1    7652.498483   X        0     0       0       0        22.19403932
      63  e        2     9725.19748   X        1     0       0       0         0.30349014
      63  e        3     11771.4176   X        2     0       0       0         0.50715990
      63  e        4    13791.22292   X        3     0       0       0         0.40485830
      63  e        5    15784.68145   X        4     0       0       0         0.30759766
      63  e        6     17751.8657   X        5     0       0       0         0.30627871
      63  e        7    19692.84474   X        6     0       0       0         0.30450670
      63  e        8    21607.69346   X        7     0       0       0         0.16778523
      63  e        9    23496.48711   X        8     0       0       0         0.25677603
      63  e       10    25359.30216   X        9     0       0       0         0.05109862
      63  e       11    27196.21781   X       10     0       0       0         0.07786141
      63  e       12    29007.31291   X       11     0       0       0         0.04729250
      63  e       13    30792.66968   X       12     0       0       0         0.04489338
      63  e       14    32552.36668   X       13     0       0       0         0.08362952
      63  e       15    34286.49076   X       14     0       0       0         0.02159827
      64  e        1    7892.197101   X        0     0       0       0        14.85884101
      64  e        2    9962.657712   X        1     0       0       0         0.31007752
      64  e        3    12006.63733   X        2     0       0       0         0.45153522
      64  e        4    14024.20142   X        3     0       0       0         0.35387791
      64  e        5    16015.42023   X        4     0       0       0         0.35149385
      64  e        6    17980.36147   X        5     0       0       0         0.32708891
      64  e        7    19919.09934   X        6     0       0       0         0.20390329
      64  e        8    21831.70649   X        7     0       0       0         0.19347706
      64  e        9    23718.25823   X        8     0       0       0         0.15856237
      64  e       10    25578.83273   X        9     0       0       0         0.10749798
      64  e       11    27413.50585   X       10     0       0       0         0.14602093
      64  e       12    29222.36051   X       11     0       0       0         0.04937053
      64  e       13    31005.47328   X       12     0       0       0         0.02046245
      64  e       14    32762.93146   X       13     0       0       0         0.04423800
      65  e        1    8135.441751   X        0     0       0       0        20.23706273
      65  e        2    10203.62652   X        1     0       0       0         0.25944076
      65  e        3     12245.3276   X        2     0       0       0         0.46256143
      65  e        4    14260.61677   X        3     0       0       0         0.24074631
      65  e        5    16249.55884   X        4     0       0       0         0.28579594
      65  e        6    18212.22454   X        5     0       0       0         0.33936652
      65  e        7    20148.68462   X        6     0       0       0         0.17502917
      65  e        8    22059.01607   X        7     0       0       0         0.20645161
      65  e        9    23943.29221   X        8     0       0       0         0.18503833
      65  e       10    25801.58838   X        9     0       0       0         0.14312977
      65  e       11    27633.98634   X       10     0       0       0         0.09737098
      65  e       12    29440.56265   X       11     0       0       0         0.02328289
      65  e       13    31221.40036   X       12     0       0       0         0.04536176
      65  e       14    32976.57968   X       13     0       0       0         0.01563477
      66  e        1    8382.219617   X        0     0       0       0        17.28110599
      66  e        2    10448.09134   X        1     0       0       0         0.30555556
      66  e        3    12487.48322   X        2     0       0       0         0.28169014
      66  e        4    14500.46128   X        3     0       0       0         0.33707865
      66  e        5    16487.09086   X        4     0       0       0         0.25352113
      66  e        6    18447.44487   X        5     0       0       0         0.25936599
      66  e        7    20381.59463   X        6     0       0       0         0.18701576
      66  e        8    22289.61352   X        7     0       0       0         0.13706140
      66  e        9     24171.5765   X        8     0       0       0         0.12281995
      66  e       10    26027.56253   X        9     0       0       0         0.15060241
      66  e       11    27857.64674   X       10     0       0       0         0.06857143
      66  e       12    29661.91216   X       11     0       0       0         0.11644155
      66  e       13    31440.43738   X       12     0       0       0         0.04749090
      66  e       14    33193.30503   X       13     0       0       0         0.02065689
      67  e        1     8632.51869   X        0     0       0       0        16.05565962
      67  e        2    10696.04519   X        1     0       0       0         0.18120632
      67  e        3    12733.09249   X        2     0       0       0         0.25259613
      67  e        4     14743.7219   X        3     0       0       0         0.32537961
      67  e        5    16728.00628   X        4     0       0       0         0.22154528
      67  e        6    18686.01368   X        5     0       0       0         0.21633315
      67  e        7    20617.81653   X        6     0       0       0         0.16268980
      67  e        8    22523.48755   X        7     0       0       0         0.09910803
      67  e        9    24403.10503   X        8     0       0       0         0.04521818
      67  e       10    26256.74236   X        9     0       0       0         0.11739845
      67  e       11     28084.4808   X       10     0       0       0         0.07183908
      67  e       12    29886.39804   X       11     0       0       0         0.04809234
      67  e       13    31662.57653   X       12     0       0       0         0.08444163
      67  e       14    33413.09666   X       13     0       0       0         0.06675567
      68  e        1    8886.333067   X        0     0       0       0         5.01630298
      68  e        2    10947.47905   X        1     0       0       0         0.24324324
      68  e        3    12982.14306   X        2     0       0       0         0.41873855
      68  e        4    14990.39271   X        3     0       0       0         0.22813688
      68  e        5    16972.29422   X        4     0       0       0         0.25174825
      68  e        6    18927.92079   X        5     0       0       0         0.23554043
      68  e        7    20857.34072   X        6     0       0       0         0.20460358
      68  e        8    22760.63122   X        7     0       0       0         0.12204052
      68  e        9    24637.86457   X        8     0       0       0         0.11834320
      68  e       10    26489.12011   X        9     0       0       0         0.09095043
      68  e       11    28314.47591   X       10     0       0       0         0.04506534
      68  e       12     30114.0116   X       11     0       0       0         0.04131378
      68  e       13    31887.80774   X       12     0       0       0         0.08463101
      68  e       14    33635.94367   X       13     0       0       0         0.03526715
      69  e        1     9143.65135   X        0     0       0       0        12.17137293
      69  e        2    11202.38094   X        1     0       0       0         0.25316456
      69  e        3    13234.62932   X        2     0       0       0         0.25601639
      69  e        4    15240.46129   X        3     0       0       0         0.29625640
      69  e        5    17219.94773   X        4     0       0       0         0.22784810
      69  e        6    19173.15553   X        5     0       0       0         0.29732408
      69  e        7    21100.15972   X        6     0       0       0         0.17618928
      69  e        8    23001.03145   X        7     0       0       0         0.19488429
      69  e        9    24875.84801   X        8     0       0       0         0.16343684
      69  e       10    26724.68602   X        9     0       0       0         0.09078529
      69  e       11    28547.62348   X       10     0       0       0         0.06560245
      69  e       12    30344.74285   X       11     0       0       0         0.07513148
      69  e       13    32116.11927   X       12     0       0       0         0.03769318
      69  e       14    33861.84052   X       13     0       0       0         0.05395683
      69  e       15    35581.98277   X       14     0       0       0         0.03326127
      70  e        1    9404.462443   X        0     0       0       0         7.36196319
      70  e        2    11460.74249   X        1     0       0       0         0.24801587
      70  e        3    13490.53843   X        2     0       0       0         0.24408103
      70  e        4    15493.92042   X        3     0       0       0         0.19507437
      70  e        5     17470.9533   X        4     0       0       0         0.24801587
      70  e        6    19421.71039   X        5     0       0       0         0.28608583
      70  e        7    21346.26036   X        6     0       0       0         0.14201183
      70  e        8    23244.68081   X        7     0       0       0         0.16806723
      70  e        9    25117.04357   X        8     0       0       0         0.08853475
      70  e       10    26963.42951   X        9     0       0       0         0.13446885
      70  e       11    28783.91641   X       10     0       0       0         0.07649646
      70  e       12    30578.57997   X       11     0       0       0         0.05757052
      70  e       13    32347.50603   X       12     0       0       0         0.07313951
      70  e       14    34090.76867   X       13     0       0       0         0.01488095
      71  e        1    9668.758883   X        0     0       0       0         4.81463649
      71  e        2    11722.55235   X        1     0       0       0         0.09385265
      71  e        3    13749.86271   X        2     0       0       0         0.28429282
      71  e        4    15750.75634   X        3     0       0       0         0.24330900
      71  e        5    17725.30376   X        4     0       0       0         0.20135917
      71  e        6    19673.57138   X        5     0       0       0         0.14214641
      71  e        7     21595.6362   X        6     0       0       0         0.17313876
      71  e        8    23491.56732   X        7     0       0       0         0.13617794
      71  e        9     25361.4442   X        8     0       0       0         0.06560245
      71  e       10    27205.34313   X        9     0       0       0         0.03896357
      71  e       11    29023.33788   X       10     0       0       0         0.02057190
      71  e       12    30815.51548   X       11     0       0       0         0.03719546
      71  e       13    32581.95086   X       12     0       0       0         0.07198128
      71  e       16    37727.64336   X       15     0       0       0         0.01496782
      72  e        1    9936.528355   X        0     0       0       0         4.23639060
      72  e        2    11987.80108   X        1     0       0       0         0.18441678
      72  e        3    14012.58981   X        2     0       0       0         0.22512382
      72  e        4    16010.96191   X        3     0       0       0         0.16140189
      72  e        5     17982.9862   X        4     0       0       0         0.18621974
      72  e        6    19928.73345   X        5     0       0       0         0.16806723
      72  e        7    21848.27308   X        6     0       0       0         0.09086779
      72  e        8    23741.68182   X        7     0       0       0         0.02129472
      72  e        9    25609.03912   X        8     0       0       0         0.03855793
      72  e       10    27450.40978   X        9     0       0       0         0.12612991
      72  e       12    31055.53619   X       11     0       0       0         0.03658983
      72  e       13    32819.45025   X       12     0       0       0         0.03501401
      72  e       14    34557.70472   X       13     0       0       0         0.05079580
      72  e       15    36270.38396   X       14     0       0       0         0.03137747
      73  e        1    10207.76229   X        0     0       0       0         6.73854447
      73  e        2    12256.47757   X        1     0       0       0         0.13178124
      73  e        3    14278.71061   X        2     0       0       0         0.19937971
      73  e        4    16274.52513   X        3     0       0       0         0.24937656
      73  e        5    18243.99208   X        4     0       0       0         0.17969452
      73  e        6    20187.17982   X        5     0       0       0         0.11235955
      73  e        7    22104.16557   X        6     0       0       0         0.06591958
      73  e        8    23995.01849   X        7     0       0       0         0.13752456
      73  e        9    25859.80953   X        8     0       0       0         0.06450226
      73  e       10    27698.62649   X        9     0       0       0         0.01804728
      73  e       11    29511.54112   X       10     0       0       0         0.07443245
      73  e       12    31298.63672   X       11     0       0       0         0.03556188
      73  e       13    33059.98883   X       12     0       0       0         0.03338898
      73  e       14    34795.68766   X       13     0       0       0         0.04957039
      73  e       16    38190.42757   X       15     0       0       0         0.01378360
      74  e        1     10482.4478   X        0     0       0       0        10.72731174
      74  e        2    12528.57318   X        1     0       0       0         0.10813149
      74  e        3    14548.21302   X        2     0       0       0         0.15267176
      74  e        4    16541.43595   X        3     0       0       0         0.15340785
      74  e        5     18508.3098   X        4     0       0       0         0.17683466
      74  e        6    20448.90839   X        5     0       0       0         0.15476454
      74  e        7    22363.29934   X        6     0       0       0         0.10681478
      74  e        8    24251.55445   X        7     0       0       0         0.07557151
      74  e        9    26113.75669   X        8     0       0       0         0.05503577
      74  e       10    27949.97825   X        9     0       0       0         0.05488474
      74  e       11    29760.29853   X       10     0       0       0         0.01807011
      74  e       12    31544.79965   X       11     0       0       0         0.05061583
      74  e       13    33303.56186   X       12     0       0       0         0.03137747
      74  e       14    35036.66129   X       13     0       0       0         0.01238083
      74  e       15    36744.18267   X       14     0       0       0         0.02867795
      75  e        1     10760.5768   X        0     0       0       0         5.61902978
      75  e        2    12804.07466   X        1     0       0       0         0.08288438
      75  e        3    14821.08957   X        2     0       0       0         0.14613779
      75  e        4    16811.68467   X        3     0       0       0         0.16835017
      75  e        5    18775.93292   X        4     0       0       0         0.19430052
      75  e        6    20713.90203   X        5     0       0       0         0.15307238
      75  e        7    22625.66141   X        6     0       0       0         0.12242400
      75  e        8    24511.29164   X        7     0       0       0         0.08255934
      75  e        9    26370.86317   X        8     0       0       0         0.03599064
      75  e       10    28204.45683   X        9     0       0       0         0.03335001
      75  e       11    30012.14783   X       10     0       0       0         0.03327233
      75  e       12    31794.01735   X       11     0       0       0         0.01723247
      75  e       13    33550.14779   X       12     0       0       0         0.02555911
      75  e       14    35280.62177   X       13     0       0       0         0.04490346
      76  e        1    11042.13606   X        0     0       0       0         8.24232434
      76  e        2    13082.97398   X        1     0       0       0         0.15411289
      76  e        3    15097.32686   X        2     0       0       0         0.11221246
      76  e        4     17085.2606   X        3     0       0       0         0.16881199
      76  e        5     19046.8444   X        4     0       0       0         0.09595087
      76  e        6    20982.14833   X        5     0       0       0         0.12505211
      76  e        7    22891.24679   X        6     0       0       0         0.14149990
      76  e        8    24774.21188   X        7     0       0       0         0.07313951
      76  e        9    26631.12067   X        8     0       0       0         0.06961364
      76  e       10    28462.04719   X        9     0       0       0         0.03406575
      76  e       11    30267.07455   X       10     0       0       0         0.03498950
      76  e       13    33799.74698   X       12     0       0       0         0.03114780
      76  e       14    35527.55289   X       13     0       0       0         0.02643754
      76  e       16    38906.52939   X       15     0       0       0         0.01321877
      77  e        1    11327.11876   X        0     0       0       0         7.56715853
      77  e        2    13365.25852   X        1     0       0       0         0.03947888
      77  e        3    15376.91446   X        2     0       0       0         0.12389015
      77  e        4    17362.15105   X        3     0       0       0         0.13464128
      77  e        5    19321.03572   X        4     0       0       0         0.11762400
      77  e        6    21253.64164   X        5     0       0       0         0.10058338
      77  e        7    23160.04069   X        6     0       0       0         0.10084712
      77  e        8    25040.30802   X        7     0       0       0         0.03534193
      77  e        9    26894.51524   X        8     0       0       0         0.08643042
      77  e       10    28722.74375   X        9     0       0       0         0.08884151
      77  e       11    30525.07197   X       10     0       0       0         0.04701457
      77  e       12    32301.57759   X       11     0       0       0         0.03277614
      77  e       13    34052.34349   X       12     0       0       0         0.04111842
      77  e       15    37476.98469   X       14     0       0       0         0.02741228
      78  e        1    11615.50527   X        0     0       0       0         5.35236396
      78  e        2    13650.91788   X        1     0       0       0         0.05455537
      78  e        3    15659.83964   X        2     0       0       0         0.13220019
      78  e        4    17642.34387   X        3     0       0       0         0.11995202
      78  e        5    19598.49615   X        4     0       0       0         0.05317263
      78  e        6    21528.36897   X        5     0       0       0         0.11862396
      78  e        7    23432.03363   X        6     0       0       0         0.09756098
      78  e        8    25309.56504   X        7     0       0       0         0.08516437
      78  e        9    27161.03865   X        8     0       0       0         0.07222824
      78  e       10    28986.53342   X        9     0       0       0         0.04760394
      78  e       11    30786.12562   X       10     0       0       0         0.04983389
      78  e       12    32559.89627   X       11     0       0       0         0.01459002
      78  e       14    36030.29779   X       13     0       0       0         0.05700442
      79  e        1    11907.29919   X        0     0       0       0         7.09345629
      79  e        2    13939.94006   X        1     0       0       0         0.13305455
      79  e        3    15946.09228   X        2     0       0       0         0.16080043
      79  e        4    17925.83036   X        3     0       0       0         0.09191176
      79  e        5    19879.21543   X        4     0       0       0         0.15515904
      79  e        6    21806.31872   X        5     0       0       0         0.10905125
      79  e        7    23707.21366   X        6     0       0       0         0.08394896
      79  e        8    25581.97495   X        7     0       0       0         0.07343492
      79  e        9    27430.68051   X        8     0       0       0         0.05051355
      79  e       10    29253.40362   X        9     0       0       0         0.05053908
      79  e       11    31050.22609   X       10     0       0       0         0.04687500
      79  e       13    34566.48589   X       12     0       0       0         0.02973536
      80  e        1    12202.47534   X        0     0       0       0         7.46965453
      80  e        2    14232.31245   X        1     0       0       0         0.10895224
      80  e        3    16235.66626   X        2     0       0       0         0.10625111
      80  e        4    18212.60054   X        3     0       0       0         0.20944402
      80  e        5    20163.17991   X        4     0       0       0         0.16094421
      80  e        6    22087.47909   X        5     0       0       0         0.10471204
      80  e        7    23985.56836   X        6     0       0       0         0.11204482
      80  e        8    25857.52767   X        7     0       0       0         0.04980907
      80  e        9    27703.42559   X        8     0       0       0         0.06836438
      80  e       10    29523.34454   X        9     0       0       0         0.04746084
      80  e       11    31317.35976   X       10     0       0       0         0.03105108
      80  e       12    33085.55519   X       11     0       0       0         0.04672169
      80  e       13    34828.00825   X       12     0       0       0         0.01390241
      81  e        1    12501.02591   X        0     0       0       0         5.36001429
      81  e        2    14528.02932   X        1     0       0       0         0.10073875
      81  e        3    16528.54242   X        2     0       0       0         0.13052396
      81  e        4     18502.6376   X        3     0       0       0         0.15842281
      81  e        5    20450.37938   X        4     0       0       0         0.13752794
      81  e        6    22371.83705   X        5     0       0       0         0.17107014
      81  e        7    24267.09164   X        6     0       0       0         0.06630201
      81  e        8    26136.20784   X        7     0       0       0         0.06938422
      81  e        9    27979.26692   X        8     0       0       0         0.06408202
      81  e       10    29796.34328   X        9     0       0       0         0.03143171
      81  e       11    31587.51997   X       10     0       0       0         0.04729623
      81  e       12    33352.87195   X       11     0       0       0         0.04342162
      82  e        1    12802.94442   X        0     0       0       0        10.02338791
      82  e        2    14827.07226   X        1     0       0       0         0.09164223
      82  e        3    16824.71502   X        2     0       0       0         0.10402219
      82  e        4    18795.93549   X        3     0       0       0         0.10166045
      82  e        5    20740.80086   X        4     0       0       0         0.13071895
      82  e        6    22659.38862   X        5     0       0       0         0.11766683
      82  e        7    24551.76356   X        6     0       0       0         0.12946181
      82  e        8    26418.00678   X        7     0       0       0         0.06492453
      82  e        9    28258.18788   X        8     0       0       0         0.01591343
      82  e       10    30072.39011   X        9     0       0       0         0.07982120
      82  e       11    31860.68888   X       10     0       0       0         0.02957267
      82  e       13    35359.90451   X       12     0       0       0         0.01210654
      83  e        1     13108.2146   X        0     0       0       0         5.00500501
      83  e        2    15129.43499   X        1     0       0       0         0.10249402
      83  e        3    17124.16735   X        2     0       0       0         0.13346680
      83  e        4    19092.47901   X        3     0       0       0         0.08238590
      83  e        5    21034.43823   X        4     0       0       0         0.11680294
      83  e        6    22950.11221   X        5     0       0       0         0.05455537
      83  e        7     24839.5803   X        6     0       0       0         0.06580030
      83  e        8    26702.90898   X        7     0       0       0         0.05036092
      83  e        9    28540.18072   X        8     0       0       0         0.04852014
      83  e       10    30351.47076   X        9     0       0       0         0.02990431
      83  e       12    33896.42621   X       11     0       0       0         0.02495321
      84  e        1    13416.82272   X        0     0       0       0         4.84966052
      84  e        2    15435.10152   X        1     0       0       0         0.06583278
      84  e        3    17426.89162   X        2     0       0       0         0.13364517
      84  e        4    19392.25955   X        3     0       0       0         0.06769335
      84  e        5    21331.27306   X        4     0       0       0         0.05968368
      84  e        6    23244.00374   X        5     0       0       0         0.03246226
      84  e        7    25130.52262   X        6     0       0       0         0.04966887
      84  e        8    26990.90725   X        7     0       0       0         0.06154793
      84  e        9    28825.23204   X        8     0       0       0         0.03024346
      84  e       11     32416.0111   X       10     0       0       0         0.01383700
      84  e       14    37608.71227   X       13     0       0       0         0.01047889
      85  e        1    13728.76111   X        0     0       0       0         4.68969830
      85  e        2    15744.06265   X        1     0       0       0         0.09886307
      85  e        3    17732.87379   X        2     0       0       0         0.10615711
      85  e        4      19695.262   X        3     0       0       0         0.07377896
      85  e        5    21631.29531   X        4     0       0       0         0.05973716
      85  e        6    23541.04413   X        5     0       0       0         0.06532745
      85  e        7    25424.58406   X        6     0       0       0         0.03041825
      85  e        8    27281.98703   X        7     0       0       0         0.03059507
      85  e        9    29113.32907   X        8     0       0       0         0.01362955
      85  e       10     30918.6878   X        9     0       0       0         0.04191115
      85  e       13    36179.66767   X       12     0       0       0         0.02143393
      86  e        1    14044.01671   X        0     0       0       0         4.87725573
      86  e        2    16056.30481   X        1     0       0       0         0.09205278
      86  e        3    18042.10222   X        2     0       0       0         0.05888415
      86  e        4    20001.47518   X        3     0       0       0         0.13408820
      86  e        5     21934.4926   X        4     0       0       0         0.06447453
      86  e        6    23841.22879   X        5     0       0       0         0.06746728
      86  e        7    25721.74944   X        6     0       0       0         0.01347891
      86  e        8    27576.13527   X        7     0       0       0         0.02751789
      86  e        9    29404.45956   X        8     0       0       0         0.02767400
      86  e       12    34733.85797   X       11     0       0       0         0.02194185
      87  e        1      14362.576   X        0     0       0       0         6.06612072
      87  e        2    16371.81573   X        1     0       0       0         0.04779353
      87  e        3    18354.56393   X        2     0       0       0         0.05894489
      87  e        4    20310.88744   X        3     0       0       0         0.10485321
      87  e        5    22240.85578   X        4     0       0       0         0.04011768
      87  e        6    24144.53694   X        5     0       0       0         0.05440696
      87  e        7    26022.00807   X        6     0       0       0         0.04167245
      87  e        8    27873.34112   X        7     0       0       0         0.04111842
      87  e       10    31497.90719   X        9     0       0       0         0.01282216
      87  e       11    33271.29197   X       10     0       0       0         0.02249213
      88  e        1    14684.42773   X        0     0       0       0         1.51791135
      88  e        2    16690.58384   X        1     0       0       0         0.08939213
      88  e        3    18670.24748   X        2     0       0       0         0.07574610
      88  e        4    20623.48708   X        3     0       0       0         0.06198667
      88  e        5     22550.3665   X        4     0       0       0         0.04043672
      88  e        6    24450.96299   X        5     0       0       0         0.04208164
      88  e        7     26325.3466   X        6     0       0       0         0.02715915
      88  e        9    29995.78149   X        8     0       0       0         0.05306447
      88  e       10    31791.98307   X        9     0       0       0         0.02308136
      88  e       11    33562.27197   X       10     0       0       0         0.02303351
      88  e       12    35306.74408   X       11     0       0       0         0.01148369
      88  e       13    37025.46167   X       12     0       0       0         0.01080614
      89  e        1    15009.55856   X        0     0       0       0         2.94724433
      89  e        2    17012.59565   X        1     0       0       0         0.05991612
      89  e        3    18989.14135   X        2     0       0       0         0.03062787
      89  e        4     20939.2567   X        3     0       0       0         0.06800871
      89  e        5     22863.0178   X        4     0       0       0         0.02833263
      89  e        6    24760.49582   X        5     0       0       0         0.01126380
      89  e        7    26631.75698   X        6     0       0       0         0.01232590
      89  e        8    28476.88067   X        7     0       0       0         0.02676660
      89  e        9    30295.94157   X        8     0       0       0         0.02323690
      89  e       10    32089.01407   X        9     0       0       0         0.03550716
      89  e       11    33856.18568   X       10     0       0       0         0.02359882
      89  e       12    35597.52377   X       11     0       0       0         0.03320421
      90  e        1    15337.95559   X        0     0       0       0         4.44378611
      90  e        2    17337.84322   X        1     0       0       0         0.01079447
      90  e        3    19311.22793   X        2     0       0       0         0.05391562
      90  e        4    21258.18981   X        3     0       0       0         0.05724098
      90  e        5    23178.79742   X        4     0       0       0         0.02267060
      90  e        6    25073.11548   X        5     0       0       0         0.02484163
      90  e        7    26941.21894   X        6     0       0       0         0.04051864
      90  e        8    28783.18357   X        7     0       0       0         0.02339729
      90  e        9    30599.08399   X        8     0       0       0         0.02436350
      90  e       10    32388.99918   X        9     0       0       0         0.02428363
      90  e       11    34153.00447   X       10     0       0       0         0.01080614
      91  e        2    17666.30143   X        1     0       0       0         0.05342594
      91  e        3    19636.50028   X        2     0       0       0         0.07229612
      91  e        4    21580.27442   X        3     0       0       0         0.04563605
      91  e        5    23497.68738   X        4     0       0       0         0.06258606
      91  e        6    25388.81192   X        5     0       0       0         0.04088865
      91  e        7    27253.72207   X        6     0       0       0         0.03609674
      91  e        8    29092.49251   X        7     0       0       0         0.02511932
      91  e        9    30905.19908   X        8     0       0       0         0.02503442
      91  e       10    32691.91695   X        9     0       0       0         0.01204239
      92  e        1    16004.50025   X        0     0       0       0         3.97193168
      92  e        2    17997.96943   X        1     0       0       0         0.05724098
      92  e        3    19964.94612   X        2     0       0       0         0.04687134
      92  e        4    21905.49117   X        3     0       0       0         0.03726245
      92  e        5    23819.67611   X        4     0       0       0         0.02751789
      92  e        6    25707.57388   X        5     0       0       0         0.01119194
      92  e        7    27569.25442   X        6     0       0       0         0.02531966
      92  e        8    29404.79538   X        7     0       0       0         0.03785011
      92  e        9    31214.26935   X        8     0       0       0         0.03639452
      92  e       10    32997.75818   X        9     0       0       0         0.01146526
      93  e        1    16342.62052   X        0     0       0       0         5.66652500
      93  e        2    18332.83384   X        1     0       0       0         0.04655493
      93  e        3    20296.54644   X        2     0       0       0         0.04921865
      93  e        4    22233.82911   X        3     0       0       0         0.05556327
      93  e        5    24144.75259   X        4     0       0       0         0.02367144
      93  e        6    26029.38512   X        5     0       0       0         0.02552648
      93  e        7    27887.80308   X        6     0       0       0         0.03815338
      93  e        8    29720.07694   X        7     0       0       0         0.02500938
      93  e        9    31526.28678   X        8     0       0       0         0.02355713
      93  e       10    33306.50813   X        9     0       0       0         0.01138174
      94  e        1    16683.96023   X        0     0       0       0         3.46820809
      94  e        2    18670.87472   X        1     0       0       0         0.03561676
      94  e        3    20631.29089   X        2     0       0       0         0.07013606
      94  e        4    22565.27703   X        3     0       0       0         0.03575685
      94  e        5    24472.90073   X        4     0       0       0         0.05147343
      94  e        6    26354.23628   X        5     0       0       0         0.02564431
      94  e        7    28209.35153   X        6     0       0       0         0.05041593
      94  e        8    30038.32708   X        7     0       0       0         0.02423949
      94  e        9    31841.23433   X        8     0       0       0         0.03506311
      95  e        1    17028.49752   X        0     0       0       0         3.58680057
      95  e        2    19012.08097   X        1     0       0       0         0.05402485
      95  e        3    20969.16621   X        2     0       0       0         0.03601441
      95  e        4    22899.81861   X        3     0       0       0         0.02595380
      95  e        5    24804.11188   X        4     0       0       0         0.01242082
      95  e        6    26682.10939   X        5     0       0       0         0.03811460
      95  e        7    28533.89263   X        6     0       0       0         0.02400960
      95  e        8    30359.52913   X        7     0       0       0         0.03606203
      95  e        9    32159.10089   X        8     0       0       0         0.02241147
      95  e       10    33932.68173   X        9     0       0       0         0.02243662
      96  e        1    17376.22224   X        0     0       0       0         4.01498929
      96  e        2    19356.44122   X        1     0       0       0         0.03627570
      96  e        3    21310.15819   X        2     0       0       0         0.06543646
      96  e        4    23237.44528   X        3     0       0       0         0.03755163
      96  e        5    25138.36502   X        4     0       0       0         0.02520797
      96  e        6    27012.99656   X        5     0       0       0         0.02418380
      96  e        7    28861.40553   X        6     0       0       0         0.01193460
      96  e        8    30683.67309   X        7     0       0       0         0.03449465
      96  e        9    32479.87053   X        8     0       0       0         0.01094691
      96  e       10    34250.07959   X        9     0       0       0         0.01078981
      97  e        1    17727.12286   X        0     0       0       0         4.87270069
      97  e        2    19703.93861   X        1     0       0       0         0.07920792
      97  e        3    21654.25619   X        2     0       0       0         0.03726245
      97  e        4     23578.1363   X        3     0       0       0         0.02582978
      97  e        5     25475.6552   X        4     0       0       0         0.04872701
      97  e        6    27346.87867   X        5     0       0       0         0.01245020
      97  e        7    29191.88195   X        6     0       0       0         0.02241147
      97  e        8    31010.74144   X        7     0       0       0         0.01177856
      98  e        1      18081.182   X        0     0       0       0         3.92618767
      98  e        2    20054.56406   X        1     0       0       0         0.04930359
      98  e        3     22001.4408   X        2     0       0       0         0.05123607
      98  e        4    23921.88495   X        3     0       0       0         0.04909180
      98  e        5    25815.96167   X        4     0       0       0         0.03764115
      98  e        6    27683.74592   X        5     0       0       0         0.02408478
      98  e        7    29525.30634   X        6     0       0       0         0.03635923
      98  e        8    31340.72396   X        7     0       0       0         0.01143249
      99  e        1    18438.39088   X        0     0       0       0         3.66972477
      99  e        2    20408.29807   X        1     0       0       0         0.05165956
      99  e        3     22351.7042   X        2     0       0       0         0.03654526
      99  e        4    24268.67191   X        3     0       0       0         0.03794106
      99  e        5    26159.27501   X        4     0       0       0         0.04782401
      99  e        6    28023.58035   X        5     0       0       0         0.02442002
      99  e        7    29861.66636   X        6     0       0       0         0.05871991
      99  e        8    31673.60278   X        7     0       0       0         0.02319916
      99  e        9    33459.47299   X        8     0       0       0         0.01099263
      99  e       10    35219.34615   X        9     0       0       0         0.01048878
     100  e        1     18798.7293   X        0     0       0       0         5.12360702
     100  e        2    20765.13252   X        1     0       0       0         0.02418380
     100  e        3    22705.02737   X        2     0       0       0         0.05018821
     100  e        4     24618.4873   X        3     0       0       0         0.02374451
     100  e        5    26505.57705   X        4     0       0       0         0.03690491
     100  e        6    28366.37302   X        5     0       0       0         0.03547357
     100  e        7    30200.94393   X        6     0       0       0         0.03496096
     100  e        8    32009.36979   X        7     0       0       0         0.03380282
     100  e        9    33791.72015   X        8     0       0       0         0.04291385
     100  e       10    35548.08188   X        9     0       0       0         0.01004319
     100  e       11    37278.52121   X       10     0       0       0         0.01014610
     100  e       12    38983.12988   X       11     0       0       0         0.01015950
     101  e        1    19162.18985   X        0     0       0       0         1.15848007
     101  e        2    21125.04703   X        1     0       0       0         0.02529404
     101  e        3    23061.39999   X        2     0       0       0         0.04715869
     101  e        4     24971.3131   X        3     0       0       0         0.04958473
     101  e        5    26854.85782   X        4     0       0       0         0.03523194
     101  e        6    28712.10421   X        5     0       0       0         0.03594967
     101  e        7    30543.13039   X        6     0       0       0         0.02198527
     101  e        8    32348.00137   X        7     0       0       0         0.02196837
     101  e        9    34126.80334   X        8     0       0       0         0.02199978
     101  e       10    35879.60961   X        9     0       0       0         0.03108486
     101  e       11    37606.49798   X       10     0       0       0         0.03112679
     102  e        2    21488.03375   X        1     0       0       0         0.03512469
     102  e        3    23420.80515   X        2     0       0       0         0.02460327
     102  e        4    25327.13776   X        3     0       0       0         0.03498950
     102  e        5    27207.10038   X        4     0       0       0         0.03621002
     102  e        6    29060.76256   X        5     0       0       0         0.02323690
     102  e        7    30888.20229   X        6     0       0       0         0.02251745
     102  e        8    32689.49302   X        7     0       0       0         0.03382950
     102  e        9    34464.70606   X        8     0       0       0         0.02118420
     102  e       10    36213.92208   X        9     0       0       0         0.04242681
     103  e        1    19898.40496   X        0     0       0       0         1.13908190
     103  e        3    23783.22986   X        2     0       0       0         0.02316960
     103  e        4    25685.94607   X        3     0       0       0         0.04863813
     103  e        5    27562.28951   X        4     0       0       0         0.03462204
     103  e        6    29412.33552   X        5     0       0       0         0.04622140
     103  e        7    31236.15031   X        6     0       0       0         0.01113586
     103  e        8    33033.82171   X        7     0       0       0         0.02167552
     103  e        9     34805.4108   X        8     0       0       0         0.02075119
     103  e       11    38270.68348   X       10     0       0       0         0.01025220
     104  e        1    20271.13436   X        0     0       0       0         1.18511496
     104  e        2    22223.15216   X        1     0       0       0         0.02301496
     104  e        3    24148.65937   X        2     0       0       0         0.04828002
     104  e        4    26047.72191   X        3     0       0       0         0.02249213
     104  e        5    27920.41468   X        4     0       0       0         0.02251745
     104  e        6    29766.80271   X        5     0       0       0         0.03427005
     104  e        7    31586.96815   X        6     0       0       0         0.02220249
     104  e        8    33380.97321   X        7     0       0       0         0.01103022
     104  e        9    35148.90802   X        8     0       0       0         0.02107926
     104  e       10    36890.84384   X        9     0       0       0         0.02008637
     105  e        2    22595.25796   X        1     0       0       0         0.03594967
     105  e        3    24517.07707   X        2     0       0       0         0.03352705
     105  e        4    26412.45563   X        3     0       0       0         0.03580380
     105  e        5    28281.45567   X        4     0       0       0         0.02269890
     105  e        6    30124.15761   X        5     0       0       0         0.02297794
     105  e        7    31940.62571   X        6     0       0       0         0.02261676
     105  e        8    33730.94192   X        7     0       0       0         0.03234850
     105  e        9    35495.18113   X        8     0       0       0         0.02065476
     105  e       10    37233.41752   X        9     0       0       0         0.01019264
     105  e       11    38945.73877   X       10     0       0       0         0.01960784
     106  e        1    21025.76075   X        0     0       0       0         2.37953599
     106  e        2    22970.37206   X        1     0       0       0         0.02221235
     106  e        3    24888.47334   X        2     0       0       0         0.02370230
     106  e        4    26780.12471   X        3     0       0       0         0.04510600
     106  e        5    28645.40488   X        4     0       0       0         0.04721993
     106  e        6    30484.37429   X        5     0       0       0         0.01058761
     106  e        7    32297.11992   X        6     0       0       0         0.03312721
     106  e        8    34083.70705   X        7     0       0       0         0.02111041
     106  e        9    35844.21482   X        8     0       0       0         0.01041124
     106  e       10    37578.72119   X        9     0       0       0         0.02000000
     107  e        1    21407.62665   X        0     0       0       0         2.20750552
     107  e        2    23348.48605   X        1     0       0       0         0.03530658
     107  e        3    25262.82691   X        2     0       0       0         0.01120574
     107  e        4    27150.72316   X        3     0       0       0         0.03446691
     107  e        5    29012.23699   X        4     0       0       0         0.04466778
     107  e        6    30847.45102   X        5     0       0       0         0.04528473
     107  e        7    32656.42947   X        6     0       0       0         0.02159594
     107  e        8    34439.25087   X        7     0       0       0         0.03281558
     107  e       10    37926.73226   X        9     0       0       0         0.01032418
     108  e        1    21792.51255   X        0     0       0       0         2.33754091
     108  e        2    23729.57649   X        1     0       0       0         0.03280481
     108  e        3    25640.12853   X        2     0       0       0         0.03446691
     108  e        4    27524.22466   X        3     0       0       0         0.02179599
     108  e        5    29381.94941   X        4     0       0       0         0.02208481
     108  e        6    31213.36109   X        5     0       0       0         0.03317850
     108  e        7    33018.54121   X        6     0       0       0         0.02241901
     108  e        9    36550.50216   X        8     0       0       0         0.03165225
     109  e        1    22180.39553   X        0     0       0       0         2.17391304
     109  e        2    24113.63677   X        1     0       0       0         0.04625882
     109  e        3    26020.35511   X        2     0       0       0         0.03250271
     109  e        4    27900.62745   X        3     0       0       0         0.03411805
     109  e        5    29754.51323   X        4     0       0       0         0.04344520
     109  e        6    31582.09927   X        5     0       0       0         0.02196837
     109  e        8    35158.62605   X        7     0       0       0         0.02098636
     110  e        1    22571.26742   X        0     0       0       0         2.29779412
     110  e        2    24500.64274   X        1     0       0       0         0.03231366
     110  e        3     26403.5014   X        2     0       0       0         0.04578755
     110  e        4    28279.90218   X        3     0       0       0         0.03184375
     110  e        5    30129.92784   X        4     0       0       0         0.04503490
     110  e        6    31953.63482   X        5     0       0       0         0.02152621
     110  e        7     33751.1152   X        6     0       0       0         0.02176279
     110  e        9    37267.65074   X        8     0       0       0         0.02055287
     111  e        1    22965.10636   X        0     0       0       0         1.05218855
     111  e        2    24890.58801   X        1     0       0       0         0.03411805
     111  e        3    26789.54149   X        2     0       0       0         0.04269855
     111  e        4    28662.04611   X        3     0       0       0         0.02266289
     111  e        5    30508.16148   X        4     0       0       0         0.03156566
     111  e        6    32327.97029   X        5     0       0       0         0.03344854
     111  e        8    35888.94371   X        7     0       0       0         0.02099958
     112  e        1    23361.90647   X        0     0       0       0         2.25988701
     112  e        2    25283.44706   X        1     0       0       0         0.04245834
     112  e        3    27178.47094   X        2     0       0       0         0.03315283
     112  e        4    29047.03219   X        3     0       0       0         0.04125413
     112  e        5    30889.21396   X        4     0       0       0         0.02176279
     112  e        7    34494.70068   X        6     0       0       0         0.02147997
     113  e        1    23761.63679   X        0     0       0       0         2.11104074
     113  e        2    25679.21512   X        1     0       0       0         0.04475274
     113  e        3    27570.26078   X        2     0       0       0         0.04208754
     113  e        4    29434.85603   X        3     0       0       0         0.04327131
     113  e        5     31273.0557   X        4     0       0       0         0.02042484
     113  e        6    33084.94526   X        5     0       0       0         0.02135611
     114  e        1    24164.29724   X        0     0       0       0         2.22370469
     114  e        2    26077.86342   X        1     0       0       0         0.03139389
     114  e        3    27964.90989   X        2     0       0       0         0.03324100
     114  e        4    29825.48745   X        3     0       0       0         0.04172752
     114  e        5    31659.68391   X        4     0       0       0         0.03216123
     114  e        6    33467.55485   X        5     0       0       0         0.02025932
     115  e        1    24569.86017   X        0     0       0       0         1.00786132
     115  e        2    26479.39211   X        1     0       0       0         0.04405286
     115  e        3    28362.38597   X        2     0       0       0         0.03112679
     115  e        5    32049.06865   X        4     0       0       0         0.02068894
     115  e        6    33852.89721   X        5     0       0       0         0.02071037
     115  e        7    35630.47235   X        6     0       0       0         0.01964637
     115  e        8    37381.89101   X        7     0       0       0         0.00983284
     116  e        1    24978.31751   X        0     0       0       0         1.09469075
     116  e        2    26883.76737   X        1     0       0       0         0.03047851
     116  e        3    28762.69201   X        2     0       0       0         0.03272965
     116  e        5    32441.20915   X        4     0       0       0         0.01028278
     116  e        6    34240.94675   X        5     0       0       0         0.00977517
     116  e        7    36014.44421   X        6     0       0       0         0.02004812
     117  e        1    25389.64587   X        0     0       0       0         0.99601594
     117  e        2     27290.9923   X        1     0       0       0         0.03197612
     117  e        4    31014.13495   X        3     0       0       0         0.03242893
     117  e        6      34631.701   X        5     0       0       0         0.00877963
     118  e        1     25803.8433   X        0     0       0       0         2.03045685
     118  e        3    29571.68836   X        2     0       0       0         0.02113271
     118  e        5       33233.66   X        4     0       0       0         0.01879699
     118  e        7     36790.3339   X        6     0       0       0         0.01800180
     119  e        2     28113.8801   X        1     0       0       0         0.02014302
     119  e        4     31820.3441   X        3     0       0       0         0.02832861
     119  e        6     35421.2111   X        5     0       0       0         0.01829826
     120  e        1     26640.7305   X        0     0       0       0         1.97433366
     120  e        3     30391.7611   X        2     0       0       0         0.02884615
     120  e        5     34036.9014   X        4     0       0       0         0.01838235
     121  e        2     28947.9265   X        1     0       0       0         0.02941176
     121  e        4      32637.421   X        3     0       0       0         0.00934579
     121  e        6     36221.2984   X        5     0       0       0         0.01792115
     122  e        3     31222.7838   X        2     0       0       0         0.00951475
     122  e        5     34850.8003   X        4     0       0       0         0.01763668
     123  e        6     37031.8376   X        5     0       0       0         0.00861326
end


