atoms H Cl

States X

print_pecs_and_couplings_to_file

jrot 0 - 10

(Defining the integration grid)
grid
 npoints 301
 range   0.8 3.0
 type 0   (nsub)
end

symmetry Cs(M)

DIAGONALIZER
 SYEV
end

(Vibrational basis set)
CONTRACTION
  vib
  vmax  50
END

assign_V_by_count

poten X
name "X1Sigma+"
symmetry +
lambda 0
mult 1
type grid
units Eh
values
   0.70000   -459.639599825200
   0.80000   -459.984104324188
   0.90000   -460.178368422526
   1.00000   -460.284277848051
   1.10000   -460.337754173907
   1.20000   -460.360036723722
   1.25000   -460.363691164689
   1.30000   -460.363882937288
   1.35000   -460.361449814858
   1.40000   -460.357049195743
   1.45000   -460.351198638108
   1.50000   -460.344306807940
   1.55000   -460.336697090871
   1.60000   -460.328625742125
   1.65000   -460.320295957779
   1.68000   -460.315242086579
   1.69000   -460.313555027883
   1.70000   -460.311868342839
   1.71000   -460.310182955289
   1.72000   -460.308499747225
   1.73000   -460.306819559576
   1.74000   -460.305143195035
   1.75000   -460.303471418778
   1.76000   -460.301804960481
   1.78000   -460.298491712742
   1.80000   -460.295206808931
   2.00000   -460.264808987949
   2.50000   -460.216582778102
   3.00000   -460.203975058582
   3.50000   -460.206984340726
end
dipole X
name "<X|mu|X>"
symmetry +
lambda 0
mult 1
type grid
values
   0.70000   0.654080135675
   0.80000   0.710681599068
   0.90000   0.775610068820
   1.00000   0.851195572643
   1.10000   0.936259870255
   1.20000   1.027989036131
   1.25000   1.075242009420
   1.30000   1.122767760440
   1.35000   1.170042921907
   1.40000   1.216501440701
   1.45000   1.261548114362
   1.50000   1.304543433497
   1.55000   1.344808531906
   1.60000   1.381632516627
   1.65000   1.414178683767
   1.68000   1.431418728197
   1.69000   1.436740910489
   1.70000   1.441840644291
   1.71000   1.446711830415
   1.72000   1.451491860827
   1.73000   1.455896729395
   1.74000   1.460055268867
   1.75000   1.463961540243
   1.76000   1.467609656707
   1.78000   1.474344386024
   1.80000   1.479763718064
   2.00000   1.464315046626
   2.50000   0.901664468668
   3.00000   0.576663110772
   3.50000   1.305984419824
end
intensity 
absorption
THRESH_INTES 1e-60
THRESH_LINE 1e-40
TEMPERATURE 2000
thresh_dipole 1e-9
linelist duo_01
J 0 - 40
freq-window 0,20000
energy low 0, 20000 upper 0, 40000
end
